     Program PWSCF v.7.3.1 starts on 14Jun2024 at 23:14:15

     Waiting for input...
     Reading input from standard input

     Current dimensions of program PWSCF are:
     Max number of different atomic species (ntypx) = 10
     Max number of k-points (npk) =  40000
     Max angular momentum in pseudopotentials (lmaxx) =  4
     file O.pbe-n-kjpaw_psl.0.1.UPF: wavefunction(s)  2P renormalized
     Message from routine setup:
     using ibrav=0 with symmetry is DISCOURAGED, use correct ibrav instead

     Subspace diagonalization in iterative solution of the eigenvalue problem:
     a serial algorithm will be used

     Using Slab Decomposition

     bravais-lattice index     =            0
     lattice parameter (alat)  =       6.1180  a.u.
     unit-cell volume          =     319.8198 (a.u.)^3
     number of atoms/cell      =            4
     number of atomic types    =            2
     number of electrons       =        52.00
     number of Kohn-Sham states=           31
     kinetic-energy cutoff     =      50.0000  Ry
     charge density cutoff     =     400.0000  Ry
     scf convergence threshold =      2.0E-08
     mixing beta               =       0.4000
     number of iterations used =            8  plain     mixing
     Exchange-correlation= SLA  PW   PBE  PBE
                           (   1   4   3   4   0   0   0)

     celldm(1)=   6.118013  celldm(2)=   0.000000  celldm(3)=   0.000000
     celldm(4)=   0.000000  celldm(5)=   0.000000  celldm(6)=   0.000000

     crystal axes: (cart. coord. in units of alat)
               a(1) = (   0.999950   0.010000   0.000000 )
               a(2) = (  -0.491315   0.860982   0.000000 )
               a(3) = (   0.000000   0.000000   1.612985 )

     reciprocal axes: (cart. coord. in units 2 pi/alat)
               b(1) = (  0.994376  0.567435 -0.000000 )
               b(2) = ( -0.011549  1.154874  0.000000 )
               b(3) = (  0.000000 -0.000000  0.619968 )

     PseudoPot. # 1 for O  read from file:
     ../SSSP_1.3.0_PBE_efficiency/O.pbe-n-kjpaw_psl.0.1.UPF
     MD5 check sum: 0234752ac141de4415c5fc33072bef88
     Pseudo is Projector augmented-wave + core cor, Zval =  6.0
     Generated using "atomic" code by A. Dal Corso  v.5.0.99 svn rev. 10869
     Shape of augmentation charge: BESSEL
     Using radial grid of 1095 points,  4 beta functions with:
                l(1) =   0
                l(2) =   0
                l(3) =   1
                l(4) =   1
     Q(r) pseudized with 0 coefficients

     PseudoPot. # 2 for Zn read from file:
     ../SSSP_1.3.0_PBE_efficiency/Zn_pbe_v1.uspp.F.UPF
     MD5 check sum: df62231357ef9e81f77b2b3087fa5675
     Pseudo is Ultrasoft, Zval = 20.0
     Generated by new atomic code, or converted to UPF format
     Using radial grid of  943 points,  6 beta functions with:
                l(1) =   0
                l(2) =   0
                l(3) =   1
                l(4) =   1
                l(5) =   2
                l(6) =   2
     Q(r) pseudized with  8 coefficients,  rinner =    1.100   1.100   1.100
                                                       1.100   1.100

     atomic species   valence    mass     pseudopotential
     O                 6.00    15.99940     O ( 1.00)
     Zn               20.00    65.38000     Zn( 1.00)

      2 Sym. Ops. (no inversion) found ( 1 have fractional translation)

                                    s                        frac. trans.

      isym =  1     identity

 cryst.   s( 1) = (     1          0          0      )
                  (     0          1          0      )
                  (     0          0          1      )

 cart.    s( 1) = (  1.0000000  0.0000000  0.0000000 )
                  (  0.0000000  1.0000000  0.0000000 )
                  (  0.0000000  0.0000000  1.0000000 )

      isym =  2     180 deg rotation - cart. axis [0,0,1]

 cryst.   s( 2) = (    -1          0          0      )    f =(  0.0000000 )
                  (     0         -1          0      )       (  0.0000000 )
                  (     0          0          1      )       (  0.5000000 )

 cart.    s( 2) = ( -1.0000000  0.0000000  0.0000000 )    f =( -0.0000000 )
                  ( -0.0000000 -1.0000000  0.0000000 )       (  0.0000000 )
                  (  0.0000000  0.0000000  1.0000000 )       (  0.8064927 )

   Cartesian axes

     site n.     atom                  positions (alat units)
         1        Zn     tau(   1) = (   0.5028616   0.2936604   0.8074471  )
         2        Zn     tau(   2) = (   0.0057732   0.5773214   0.0009544  )
         3        O      tau(   3) = (   0.5028616   0.2936604   1.4189729  )
         4        O      tau(   4) = (   0.0057732   0.5773214   0.6124801  )

   Crystallographic axes

     site n.     atom                  positions (cryst. coord.)
         1        Zn     tau(   1) = (  0.6666667  0.3333333  0.5005917  )
         2        Zn     tau(   2) = (  0.3333333  0.6666667  0.0005917  )
         3        O      tau(   3) = (  0.6666667  0.3333333  0.8797183  )
         4        O      tau(   4) = (  0.3333333  0.6666667  0.3797183  )

     number of k points=   370  Marzari-Vanderbilt smearing, width (Ry)=  0.0147
                       cart. coord. in units 2pi/alat
        k(    1) = (   0.0000000   0.0000000   0.0000000), wk =   0.0017361
        k(    2) = (   0.0000000   0.0000000   0.0774960), wk =   0.0034722
        k(    3) = (   0.0000000   0.0000000   0.1549921), wk =   0.0034722
        k(    4) = (   0.0000000   0.0000000   0.2324881), wk =   0.0034722
        k(    5) = (   0.0000000   0.0000000  -0.3099842), wk =   0.0017361
        k(    6) = (  -0.0009624   0.0962395   0.0000000), wk =   0.0034722
        k(    7) = (  -0.0009624   0.0962395   0.0774960), wk =   0.0069444
        k(    8) = (  -0.0009624   0.0962395   0.1549921), wk =   0.0069444
        k(    9) = (  -0.0009624   0.0962395   0.2324881), wk =   0.0069444
        k(   10) = (  -0.0009624   0.0962395  -0.3099842), wk =   0.0034722
        k(   11) = (  -0.0019248   0.1924790   0.0000000), wk =   0.0034722
        k(   12) = (  -0.0019248   0.1924790   0.0774960), wk =   0.0069444
        k(   13) = (  -0.0019248   0.1924790   0.1549921), wk =   0.0069444
        k(   14) = (  -0.0019248   0.1924790   0.2324881), wk =   0.0069444
        k(   15) = (  -0.0019248   0.1924790  -0.3099842), wk =   0.0034722
        k(   16) = (  -0.0028872   0.2887184   0.0000000), wk =   0.0034722
        k(   17) = (  -0.0028872   0.2887184   0.0774960), wk =   0.0069444
        k(   18) = (  -0.0028872   0.2887184   0.1549921), wk =   0.0069444
        k(   19) = (  -0.0028872   0.2887184   0.2324881), wk =   0.0069444
        k(   20) = (  -0.0028872   0.2887184  -0.3099842), wk =   0.0034722
        k(   21) = (  -0.0038496   0.3849579   0.0000000), wk =   0.0034722
        k(   22) = (  -0.0038496   0.3849579   0.0774960), wk =   0.0069444
        k(   23) = (  -0.0038496   0.3849579   0.1549921), wk =   0.0069444
        k(   24) = (  -0.0038496   0.3849579   0.2324881), wk =   0.0069444
        k(   25) = (  -0.0038496   0.3849579  -0.3099842), wk =   0.0034722
        k(   26) = (  -0.0048120   0.4811974   0.0000000), wk =   0.0034722
        k(   27) = (  -0.0048120   0.4811974   0.0774960), wk =   0.0069444
        k(   28) = (  -0.0048120   0.4811974   0.1549921), wk =   0.0069444
        k(   29) = (  -0.0048120   0.4811974   0.2324881), wk =   0.0069444
        k(   30) = (  -0.0048120   0.4811974  -0.3099842), wk =   0.0034722
        k(   31) = (   0.0057744  -0.5774369   0.0000000), wk =   0.0017361
        k(   32) = (   0.0057744  -0.5774369   0.0774960), wk =   0.0034722
        k(   33) = (   0.0057744  -0.5774369   0.1549921), wk =   0.0034722
        k(   34) = (   0.0057744  -0.5774369   0.2324881), wk =   0.0034722
        k(   35) = (   0.0057744  -0.5774369  -0.3099842), wk =   0.0017361
        k(   36) = (   0.0828646   0.0472863   0.0000000), wk =   0.0034722
        k(   37) = (   0.0828646   0.0472863   0.0774960), wk =   0.0069444
        k(   38) = (   0.0828646   0.0472863   0.1549921), wk =   0.0069444
        k(   39) = (   0.0828646   0.0472863   0.2324881), wk =   0.0069444
        k(   40) = (   0.0828646   0.0472863  -0.3099842), wk =   0.0034722
        k(   41) = (   0.0819022   0.1435258   0.0000000), wk =   0.0034722
        k(   42) = (   0.0819022   0.1435258   0.0774960), wk =   0.0069444
        k(   43) = (   0.0819022   0.1435258   0.1549921), wk =   0.0069444
        k(   44) = (   0.0819022   0.1435258   0.2324881), wk =   0.0069444
        k(   45) = (   0.0819022   0.1435258  -0.3099842), wk =   0.0034722
        k(   46) = (   0.0809398   0.2397652   0.0000000), wk =   0.0034722
        k(   47) = (   0.0809398   0.2397652   0.0774960), wk =   0.0069444
        k(   48) = (   0.0809398   0.2397652   0.1549921), wk =   0.0069444
        k(   49) = (   0.0809398   0.2397652   0.2324881), wk =   0.0069444
        k(   50) = (   0.0809398   0.2397652  -0.3099842), wk =   0.0034722
        k(   51) = (   0.0799775   0.3360047   0.0000000), wk =   0.0034722
        k(   52) = (   0.0799775   0.3360047   0.0774960), wk =   0.0069444
        k(   53) = (   0.0799775   0.3360047   0.1549921), wk =   0.0069444
        k(   54) = (   0.0799775   0.3360047   0.2324881), wk =   0.0069444
        k(   55) = (   0.0799775   0.3360047  -0.3099842), wk =   0.0034722
        k(   56) = (   0.0790151   0.4322442   0.0000000), wk =   0.0034722
        k(   57) = (   0.0790151   0.4322442   0.0774960), wk =   0.0069444
        k(   58) = (   0.0790151   0.4322442   0.1549921), wk =   0.0069444
        k(   59) = (   0.0790151   0.4322442   0.2324881), wk =   0.0069444
        k(   60) = (   0.0790151   0.4322442  -0.3099842), wk =   0.0034722
[...]
        k(  356) = (  -0.5010374   0.1012402   0.0000000), wk =   0.0034722
        k(  357) = (  -0.5010374   0.1012402   0.0774960), wk =   0.0069444
        k(  358) = (  -0.5010374   0.1012402   0.1549921), wk =   0.0069444
        k(  359) = (  -0.5010374   0.1012402   0.2324881), wk =   0.0069444
        k(  360) = (  -0.5010374   0.1012402  -0.3099842), wk =   0.0034722
        k(  361) = (  -0.5019998   0.1974797   0.0000000), wk =   0.0034722
        k(  362) = (  -0.5019998   0.1974797   0.0774960), wk =   0.0069444
        k(  363) = (  -0.5019998   0.1974797   0.1549921), wk =   0.0069444
        k(  364) = (  -0.5019998   0.1974797   0.2324881), wk =   0.0069444
        k(  365) = (  -0.5019998   0.1974797  -0.3099842), wk =   0.0034722
        k(  366) = (  -0.4914135  -0.8611546   0.0000000), wk =   0.0017361
        k(  367) = (  -0.4914135  -0.8611546   0.0774960), wk =   0.0034722
        k(  368) = (  -0.4914135  -0.8611546   0.1549921), wk =   0.0034722
        k(  369) = (  -0.4914135  -0.8611546   0.2324881), wk =   0.0034722
        k(  370) = (  -0.4914135  -0.8611546  -0.3099842), wk =   0.0017361

                       cryst. coord.
        k(    1) = (   0.0000000   0.0000000   0.0000000), wk =   0.0017361
        k(    2) = (   0.0000000   0.0000000   0.1250000), wk =   0.0034722
        k(    3) = (   0.0000000   0.0000000   0.2500000), wk =   0.0034722
        k(    4) = (   0.0000000   0.0000000   0.3750000), wk =   0.0034722
        k(    5) = (   0.0000000   0.0000000  -0.5000000), wk =   0.0017361
        k(    6) = (   0.0000000   0.0833333   0.0000000), wk =   0.0034722
        k(    7) = (   0.0000000   0.0833333   0.1250000), wk =   0.0069444
        k(    8) = (   0.0000000   0.0833333   0.2500000), wk =   0.0069444
        k(    9) = (   0.0000000   0.0833333   0.3750000), wk =   0.0069444
        k(   10) = (   0.0000000   0.0833333  -0.5000000), wk =   0.0034722
        k(   11) = (   0.0000000   0.1666667   0.0000000), wk =   0.0034722
        k(   12) = (   0.0000000   0.1666667   0.1250000), wk =   0.0069444
        k(   13) = (   0.0000000   0.1666667   0.2500000), wk =   0.0069444
        k(   14) = (   0.0000000   0.1666667   0.3750000), wk =   0.0069444
        k(   15) = (   0.0000000   0.1666667  -0.5000000), wk =   0.0034722
        k(   16) = (   0.0000000   0.2500000   0.0000000), wk =   0.0034722
        k(   17) = (   0.0000000   0.2500000   0.1250000), wk =   0.0069444
        k(   18) = (   0.0000000   0.2500000   0.2500000), wk =   0.0069444
        k(   19) = (   0.0000000   0.2500000   0.3750000), wk =   0.0069444
        k(   20) = (   0.0000000   0.2500000  -0.5000000), wk =   0.0034722
        k(   21) = (   0.0000000   0.3333333   0.0000000), wk =   0.0034722
        k(   22) = (   0.0000000   0.3333333   0.1250000), wk =   0.0069444
        k(   23) = (   0.0000000   0.3333333   0.2500000), wk =   0.0069444
        k(   24) = (   0.0000000   0.3333333   0.3750000), wk =   0.0069444
        k(   25) = (   0.0000000   0.3333333  -0.5000000), wk =   0.0034722
        k(   26) = (   0.0000000   0.4166667   0.0000000), wk =   0.0034722
        k(   27) = (   0.0000000   0.4166667   0.1250000), wk =   0.0069444
        k(   28) = (   0.0000000   0.4166667   0.2500000), wk =   0.0069444
        k(   29) = (   0.0000000   0.4166667   0.3750000), wk =   0.0069444
        k(   30) = (   0.0000000   0.4166667  -0.5000000), wk =   0.0034722
        k(   31) = (   0.0000000  -0.5000000   0.0000000), wk =   0.0017361
        k(   32) = (   0.0000000  -0.5000000   0.1250000), wk =   0.0034722
        k(   33) = (   0.0000000  -0.5000000   0.2500000), wk =   0.0034722
        k(   34) = (   0.0000000  -0.5000000   0.3750000), wk =   0.0034722
        k(   35) = (   0.0000000  -0.5000000  -0.5000000), wk =   0.0017361
        k(   36) = (   0.0833333   0.0000000   0.0000000), wk =   0.0034722
        k(   37) = (   0.0833333   0.0000000   0.1250000), wk =   0.0069444
        k(   38) = (   0.0833333   0.0000000   0.2500000), wk =   0.0069444
        k(   39) = (   0.0833333   0.0000000   0.3750000), wk =   0.0069444
        k(   40) = (   0.0833333   0.0000000  -0.5000000), wk =   0.0034722
        k(   41) = (   0.0833333   0.0833333   0.0000000), wk =   0.0034722
        k(   42) = (   0.0833333   0.0833333   0.1250000), wk =   0.0069444
        k(   43) = (   0.0833333   0.0833333   0.2500000), wk =   0.0069444
        k(   44) = (   0.0833333   0.0833333   0.3750000), wk =   0.0069444
        k(   45) = (   0.0833333   0.0833333  -0.5000000), wk =   0.0034722
        k(   46) = (   0.0833333   0.1666667   0.0000000), wk =   0.0034722
        k(   47) = (   0.0833333   0.1666667   0.1250000), wk =   0.0069444
        k(   48) = (   0.0833333   0.1666667   0.2500000), wk =   0.0069444
        k(   49) = (   0.0833333   0.1666667   0.3750000), wk =   0.0069444
        k(   50) = (   0.0833333   0.1666667  -0.5000000), wk =   0.0034722
        k(   51) = (   0.0833333   0.2500000   0.0000000), wk =   0.0034722
        k(   52) = (   0.0833333   0.2500000   0.1250000), wk =   0.0069444
        k(   53) = (   0.0833333   0.2500000   0.2500000), wk =   0.0069444
        k(   54) = (   0.0833333   0.2500000   0.3750000), wk =   0.0069444
        k(   55) = (   0.0833333   0.2500000  -0.5000000), wk =   0.0034722
        k(   56) = (   0.0833333   0.3333333   0.0000000), wk =   0.0034722
        k(   57) = (   0.0833333   0.3333333   0.1250000), wk =   0.0069444
        k(   58) = (   0.0833333   0.3333333   0.2500000), wk =   0.0069444
        k(   59) = (   0.0833333   0.3333333   0.3750000), wk =   0.0069444
        k(   60) = (   0.0833333   0.3333333  -0.5000000), wk =   0.0034722
[...]
        k(  356) = (  -0.5000000   0.3333333   0.0000000), wk =   0.0034722
        k(  357) = (  -0.5000000   0.3333333   0.1250000), wk =   0.0069444
        k(  358) = (  -0.5000000   0.3333333   0.2500000), wk =   0.0069444
        k(  359) = (  -0.5000000   0.3333333   0.3750000), wk =   0.0069444
        k(  360) = (  -0.5000000   0.3333333  -0.5000000), wk =   0.0034722
        k(  361) = (  -0.5000000   0.4166667   0.0000000), wk =   0.0034722
        k(  362) = (  -0.5000000   0.4166667   0.1250000), wk =   0.0069444
        k(  363) = (  -0.5000000   0.4166667   0.2500000), wk =   0.0069444
        k(  364) = (  -0.5000000   0.4166667   0.3750000), wk =   0.0069444
        k(  365) = (  -0.5000000   0.4166667  -0.5000000), wk =   0.0034722
        k(  366) = (  -0.5000000  -0.5000000   0.0000000), wk =   0.0017361
        k(  367) = (  -0.5000000  -0.5000000   0.1250000), wk =   0.0034722
        k(  368) = (  -0.5000000  -0.5000000   0.2500000), wk =   0.0034722
        k(  369) = (  -0.5000000  -0.5000000   0.3750000), wk =   0.0034722
        k(  370) = (  -0.5000000  -0.5000000  -0.5000000), wk =   0.0017361

     Check: negative core charge=   -0.000003

     Initial potential from superposition of free atoms

     starting charge      51.9997, renormalised to      52.0000
     Starting wfcs are   34 randomized atomic wfcs
     Checking if some PAW data can be deallocated...

     Self-consistent Calculation

     iteration #  1     ecut=    50.00 Ry     beta= 0.40
     Davidson diagonalization with overlap

     ethr =  1.00E-02,  avg # of iterations =  2.9

     total energy              =   -1006.32201720 Ry
     estimated scf accuracy    <       0.85253612 Ry

[...]

     WARNING: integrated charge=    52.00027140, expected=    52.00000000

[...]

     total energy              =   -1006.56801181 Ry
     estimated scf accuracy    <       0.00000016 Ry

     iteration # 10     ecut=    50.00 Ry     beta= 0.40
     Davidson diagonalization with overlap

     ethr =  3.06E-10,  avg # of iterations =  2.0

     End of self-consistent calculation

          k = 0.0000 0.0000 0.0000 (  1881 PWs)   bands (ev):

  -114.5433-114.5432 -68.7447 -68.7422 -68.7389 -68.7387 -68.7367 -68.7366
    -9.2211  -8.4877   3.1545   3.1641   3.2041   3.2350   3.3475   3.3654
     4.3429   4.3525   4.5580   4.5599   4.8366   8.0716   8.1262   8.8079
     8.8685   8.9276   9.6970  14.1509  17.1123  21.7008  22.0252

     occupation numbers
     1.0000   1.0000   1.0000   1.0000   1.0000   1.0000   1.0000   1.0000
     1.0000   1.0000   1.0000   1.0000   1.0000   1.0000   1.0000   1.0000
     1.0000   1.0000   1.0000   1.0000   1.0000   1.0000   1.0000   1.0002
     1.0010   1.0034   0.0252   0.0000   0.0000   0.0000   0.0000

[...]

          k =-0.0010 0.0962 0.0000 (  1883 PWs)   bands (ev):

[...]

          k = 0.4153 0.1402-0.3100 (  1922 PWs)   bands (ev):

[...]

          k =-0.4914-0.8612-0.3100 (  1908 PWs)   bands (ev):

  -114.5431-114.5431 -68.7442 -68.7442 -68.7403 -68.7403 -68.7374 -68.7374
    -8.3885  -8.3885   2.7723   2.7723   3.6555   3.6555   3.7137   3.7137
     4.5500   4.5500   4.6431   4.6431   5.1241   5.1241   7.3134   7.3134
     7.5224   7.5224  14.6082  14.6082  17.4344  17.4344  20.1605

     occupation numbers
     1.0000   1.0000   1.0000   1.0000   1.0000   1.0000   1.0000   1.0000
     1.0000   1.0000   1.0000   1.0000   1.0000   1.0000   1.0000   1.0000
     1.0000   1.0000   1.0000   1.0000   1.0000   1.0000   1.0000   1.0000
     1.0000   1.0000   0.0000   0.0000   0.0000   0.0000   0.0000

     the Fermi energy is     9.4882 ev

     WARNING: integrated charge=    52.00007733, expected=    52.00000000

!    total energy              =   -1006.56801198 Ry
     estimated scf accuracy    <          8.5E-10 Ry
     smearing contrib. (-TS)   =       0.00000082 Ry
     internal energy E=F+TS    =   -1006.56801280 Ry

     The total energy is F=E-TS. E is the sum of the following terms:
     one-electron contribution =    -804.01042967 Ry
     hartree contribution      =     424.17150165 Ry
     xc contribution           =     -99.53059652 Ry
     ewald contribution        =    -508.17051544 Ry
     one-center paw contrib.   =     -19.02797283 Ry
      -> PAW hartree energy AE =      52.91169909 Ry
      -> PAW hartree energy PS =     -52.66028128 Ry
      -> PAW xc energy AE      =     -33.43571134 Ry
      -> PAW xc energy PS      =      14.15632070 Ry
      -> total E_H with PAW    =     424.42291947 Ry
      -> total E_XC with PAW   =    -118.80998716 Ry

     convergence has been achieved in  10 iterations

     Forces acting on atoms (cartesian axes, Ry/au):

     atom    1 type  2   force =     0.00589323   -0.00016264    0.00008001
     atom    2 type  2   force =    -0.00589323    0.00016264    0.00008001
     atom    3 type  1   force =     0.00666969   -0.00016812   -0.00008001
     atom    4 type  1   force =    -0.00666969    0.00016812   -0.00008001
     The non-local contrib.  to forces
     atom    1 type  2   force =     0.07335324   -0.00033017   -0.01224193
     atom    2 type  2   force =    -0.07335324    0.00033017   -0.01224193
     atom    3 type  1   force =    -0.02783049   -0.00002886    0.00410965
     atom    4 type  1   force =     0.02783049    0.00002886    0.00410965
     The ionic contribution  to forces
     atom    1 type  2   force =     0.70666521    0.00100317    0.08619178
     atom    2 type  2   force =    -0.70666521   -0.00100317    0.08619178
     atom    3 type  1   force =     0.56294916   -0.00042212   -0.08619178
     atom    4 type  1   force =    -0.56294916    0.00042212   -0.08619178
     The local contribution  to forces
     atom    1 type  2   force =    -0.77412233   -0.00083524   -0.07386906
     atom    2 type  2   force =     0.77412233    0.00083524   -0.07386906
     atom    3 type  1   force =    -0.52869172    0.00028238    0.08206311
     atom    4 type  1   force =     0.52869172   -0.00028238    0.08206311
     The core correction contribution to forces
     atom    1 type  2   force =     0.00000000    0.00000000    0.00000000
     atom    2 type  2   force =     0.00000000    0.00000000    0.00000000
     atom    3 type  1   force =     0.00024319    0.00000073   -0.00006222
     atom    4 type  1   force =    -0.00024319   -0.00000073   -0.00006222
     The Hubbard contrib.    to forces
     atom    1 type  2   force =     0.00000000    0.00000000    0.00000000
     atom    2 type  2   force =     0.00000000    0.00000000    0.00000000
     atom    3 type  1   force =     0.00000000    0.00000000    0.00000000
     atom    4 type  1   force =     0.00000000    0.00000000    0.00000000
     The SCF correction term to forces
     atom    1 type  2   force =    -0.00000289   -0.00000040   -0.00000436
     atom    2 type  2   force =     0.00000289    0.00000040   -0.00000436
     atom    3 type  1   force =    -0.00000045   -0.00000024   -0.00000236
     atom    4 type  1   force =     0.00000045    0.00000024   -0.00000236

     Total force =     0.012592     Total SCF correction =     0.000008

     Computing stress (Cartesian axis) and pressure

          total   stress  (Ry/bohr**3)                   (kbar)     P=       54.98
   0.00037464  -0.00012199   0.00000000           55.11      -17.95        0.00
  -0.00012199   0.00037242   0.00000000          -17.95       54.78        0.00
   0.00000000   0.00000000   0.00037424            0.00        0.00       55.05

     kinetic stress (kbar)  35031.94    -11.77      0.00
                              -11.77  35032.76      0.00
                                0.00      0.00  35061.18

     local   stress (kbar)  -5354.97   1328.54      0.00
                             1328.54  -5414.27     -0.00
                                0.00     -0.00  -9542.72

     nonloc. stress (kbar)   -723.19     -2.17      0.00
                               -2.17   -723.46      0.00
                                0.00      0.00   -736.04

     hartree stress (kbar)  64361.52   -546.07     -0.00
                             -546.07  64390.30      0.00
                               -0.00      0.00  66351.12

     exc-cor stress (kbar) -14219.14     -0.38     -0.00
                               -0.38 -14219.16      0.00
                               -0.00      0.00 -14219.27

     corecor stress (kbar)   -390.76      0.06     -0.00
                                0.06   -390.77      0.00
                               -0.00      0.00   -390.79

     ewald   stress (kbar) -78650.28   -786.15      0.00
                             -786.15 -78620.62      0.00
                                0.00      0.00 -76468.42

     hubbard stress (kbar)      0.00      0.00      0.00
                                0.00      0.00      0.00
                                0.00      0.00      0.00

     DFT-D   stress (kbar)      0.00      0.00      0.00
                                0.00      0.00      0.00
                                0.00      0.00      0.00

     XDM     stress (kbar)      0.00      0.00      0.00
                                0.00      0.00      0.00
                                0.00      0.00      0.00

     dft-nl  stress (kbar)      0.00      0.00      0.00
                                0.00      0.00      0.00
                                0.00      0.00      0.00

     TS-vdW  stress (kbar)      0.00      0.00      0.00
                                0.00      0.00      0.00
                                0.00      0.00      0.00

     MDB     stress (kbar)      0.00      0.00      0.00
                                0.00      0.00      0.00
                                0.00      0.00      0.00

     3D-RISM stress (kbar)      0.00      0.00      0.00
                                0.00      0.00      0.00
                                0.00      0.00      0.00

     Writing all to output data dir ./temp_hexag/aiida.save/ :
     XML data file, charge density, pseudopotentials, collected wavefunctions

     General routines

     Parallel routines

     PAW routines

   This run was terminated on:  23:27:33  14Jun2024

   JOB DONE.