     Program PWSCF v.7.3.1 starts on 14Jun2024 at 23:29:57

     Waiting for input...
     Reading input from standard input

     Current dimensions of program PWSCF are:
     Max number of different atomic species (ntypx) = 10
     Max number of k-points (npk) =  40000
     Max angular momentum in pseudopotentials (lmaxx) =  4
     file O.pbe-n-kjpaw_psl.0.1.UPF: wavefunction(s)  2P renormalized
     Message from routine setup:
     using ibrav=0 with symmetry is DISCOURAGED, use correct ibrav instead

     Subspace diagonalization in iterative solution of the eigenvalue problem:
     a serial algorithm will be used

     Using Slab Decomposition

     bravais-lattice index     =            0
     lattice parameter (alat)  =       6.1180  a.u.
     unit-cell volume          =     319.8198 (a.u.)^3
     number of atoms/cell      =            4
     number of atomic types    =            2
     number of electrons       =        52.00
     number of Kohn-Sham states=           31
     kinetic-energy cutoff     =      50.0000  Ry
     charge density cutoff     =     400.0000  Ry
     scf convergence threshold =      2.0E-08
     mixing beta               =       0.4000
     number of iterations used =            8  plain     mixing
     Exchange-correlation= SLA  PW   PBE  PBE
                           (   1   4   3   4   0   0   0)

     celldm(1)=   6.118013  celldm(2)=   0.000000  celldm(3)=   0.000000
     celldm(4)=   0.000000  celldm(5)=   0.000000  celldm(6)=   0.000000

     crystal axes: (cart. coord. in units of alat)
               a(1) = (   0.999950   0.000000   0.010000 )
               a(2) = (  -0.499975   0.865982  -0.005000 )
               a(3) = (   0.016130   0.000000   1.612985 )

     reciprocal axes: (cart. coord. in units 2 pi/alat)
               b(1) = (  1.000150  0.577379 -0.010002 )
               b(2) = (  0.000000  1.154758  0.000000 )
               b(3) = ( -0.006200  0.000000  0.620030 )

     PseudoPot. # 1 for O  read from file:
     ../SSSP_1.3.0_PBE_efficiency/O.pbe-n-kjpaw_psl.0.1.UPF
     MD5 check sum: 0234752ac141de4415c5fc33072bef88
     Pseudo is Projector augmented-wave + core cor, Zval =  6.0
     Generated using "atomic" code by A. Dal Corso  v.5.0.99 svn rev. 10869
     Shape of augmentation charge: BESSEL
     Using radial grid of 1095 points,  4 beta functions with:
                l(1) =   0
                l(2) =   0
                l(3) =   1
                l(4) =   1
     Q(r) pseudized with 0 coefficients

     PseudoPot. # 2 for Zn read from file:
     ../SSSP_1.3.0_PBE_efficiency/Zn_pbe_v1.uspp.F.UPF
     MD5 check sum: df62231357ef9e81f77b2b3087fa5675
     Pseudo is Ultrasoft, Zval = 20.0
     Generated by new atomic code, or converted to UPF format
     Using radial grid of  943 points,  6 beta functions with:
                l(1) =   0
                l(2) =   0
                l(3) =   1
                l(4) =   1
                l(5) =   2
                l(6) =   2
     Q(r) pseudized with  8 coefficients,  rinner =    1.100   1.100   1.100
                                                       1.100   1.100

     atomic species   valence    mass     pseudopotential
     O                 6.00    15.99940     O ( 1.00)
     Zn               20.00    65.38000     Zn( 1.00)

      2 Sym. Ops. (no inversion) found ( 1 have fractional translation)

                                    s                        frac. trans.

      isym =  1     identity

 cryst.   s( 1) = (     1          0          0      )
                  (     0          1          0      )
                  (     0          0          1      )

 cart.    s( 1) = (  1.0000000  0.0000000  0.0000000 )
                  (  0.0000000  1.0000000  0.0000000 )
                  (  0.0000000  0.0000000  1.0000000 )

      isym =  2     inv. 180 deg rotation - cart. axis [0,1,0]

 cryst.   s( 2) = (     1          0          0      )    f =( -0.0000000 )
                  (    -1         -1          0      )       (  0.0000000 )
                  (     0          0          1      )       (  0.5000000 )

 cart.    s( 2) = (  1.0000000  0.0000000  0.0000000 )    f =(  0.0080649 )
                  (  0.0000000 -1.0000000  0.0000000 )       (  0.0000000 )
                  (  0.0000000  0.0000000  1.0000000 )       (  0.8064927 )

   Cartesian axes

     site n.     atom                  positions (alat units)
         1        Zn     tau(   1) = (   0.5080495   0.2886607   0.8124469  )
         2        Zn     tau(   2) = (   0.0000095   0.5773214   0.0009544  )
         3        O      tau(   3) = (   0.5141647   0.2886607   1.4239726  )
         4        O      tau(   4) = (   0.0061248   0.5773214   0.6124801  )

   Crystallographic axes

     site n.     atom                  positions (cryst. coord.)
         1        Zn     tau(   1) = (  0.6666667  0.3333333  0.5005917  )
         2        Zn     tau(   2) = (  0.3333333  0.6666667  0.0005917  )
         3        O      tau(   3) = (  0.6666667  0.3333333  0.8797183  )
         4        O      tau(   4) = (  0.3333333  0.6666667  0.3797183  )

     number of k points=   320  Marzari-Vanderbilt smearing, width (Ry)=  0.0147
                       cart. coord. in units 2pi/alat
        k(    1) = (   0.0000000   0.0000000   0.0000000), wk =   0.0017361
        k(    2) = (  -0.0007750   0.0000000   0.0775038), wk =   0.0034722
        k(    3) = (  -0.0015501   0.0000000   0.1550076), wk =   0.0034722
        k(    4) = (  -0.0023251   0.0000000   0.2325114), wk =   0.0034722
        k(    5) = (   0.0031002   0.0000000  -0.3100152), wk =   0.0017361
        k(    6) = (   0.0000000   0.0962299   0.0000000), wk =   0.0034722
        k(    7) = (  -0.0007750   0.0962299   0.0775038), wk =   0.0069444
        k(    8) = (  -0.0015501   0.0962299   0.1550076), wk =   0.0069444
        k(    9) = (  -0.0023251   0.0962299   0.2325114), wk =   0.0069444
        k(   10) = (   0.0031002   0.0962299  -0.3100152), wk =   0.0034722
        k(   11) = (   0.0000000   0.1924597   0.0000000), wk =   0.0034722
        k(   12) = (  -0.0007750   0.1924597   0.0775038), wk =   0.0069444
        k(   13) = (  -0.0015501   0.1924597   0.1550076), wk =   0.0069444
        k(   14) = (  -0.0023251   0.1924597   0.2325114), wk =   0.0069444
        k(   15) = (   0.0031002   0.1924597  -0.3100152), wk =   0.0034722
        k(   16) = (   0.0000000   0.2886896   0.0000000), wk =   0.0034722
        k(   17) = (  -0.0007750   0.2886896   0.0775038), wk =   0.0069444
        k(   18) = (  -0.0015501   0.2886896   0.1550076), wk =   0.0069444
        k(   19) = (  -0.0023251   0.2886896   0.2325114), wk =   0.0069444
        k(   20) = (   0.0031002   0.2886896  -0.3100152), wk =   0.0034722
        k(   21) = (   0.0000000   0.3849194   0.0000000), wk =   0.0034722
        k(   22) = (  -0.0007750   0.3849194   0.0775038), wk =   0.0069444
        k(   23) = (  -0.0015501   0.3849194   0.1550076), wk =   0.0069444
        k(   24) = (  -0.0023251   0.3849194   0.2325114), wk =   0.0069444
        k(   25) = (   0.0031002   0.3849194  -0.3100152), wk =   0.0034722
        k(   26) = (   0.0000000   0.4811493   0.0000000), wk =   0.0034722
        k(   27) = (  -0.0007750   0.4811493   0.0775038), wk =   0.0069444
        k(   28) = (  -0.0015501   0.4811493   0.1550076), wk =   0.0069444
        k(   29) = (  -0.0023251   0.4811493   0.2325114), wk =   0.0069444
        k(   30) = (   0.0031002   0.4811493  -0.3100152), wk =   0.0034722
        k(   31) = (   0.0000000  -0.5773791   0.0000000), wk =   0.0017361
        k(   32) = (  -0.0007750  -0.5773791   0.0775038), wk =   0.0034722
        k(   33) = (  -0.0015501  -0.5773791   0.1550076), wk =   0.0034722
        k(   34) = (  -0.0023251  -0.5773791   0.2325114), wk =   0.0034722
        k(   35) = (   0.0031002  -0.5773791  -0.3100152), wk =   0.0017361
        k(   36) = (   0.0833458   0.0481149  -0.0008335), wk =   0.0069444
        k(   37) = (   0.0825708   0.0481149   0.0766703), wk =   0.0069444
        k(   38) = (   0.0817958   0.0481149   0.1541741), wk =   0.0069444
        k(   39) = (   0.0810207   0.0481149   0.2316779), wk =   0.0069444
        k(   40) = (   0.0864460   0.0481149  -0.3108486), wk =   0.0069444
        k(   41) = (   0.0856709   0.0481149  -0.2333449), wk =   0.0069444
        k(   42) = (   0.0848959   0.0481149  -0.1558411), wk =   0.0069444
        k(   43) = (   0.0841209   0.0481149  -0.0783373), wk =   0.0069444
        k(   44) = (   0.0833458   0.1443448  -0.0008335), wk =   0.0069444
        k(   45) = (   0.0825708   0.1443448   0.0766703), wk =   0.0069444
        k(   46) = (   0.0817958   0.1443448   0.1541741), wk =   0.0069444
        k(   47) = (   0.0810207   0.1443448   0.2316779), wk =   0.0069444
        k(   48) = (   0.0864460   0.1443448  -0.3108486), wk =   0.0069444
        k(   49) = (   0.0856709   0.1443448  -0.2333449), wk =   0.0069444
        k(   50) = (   0.0848959   0.1443448  -0.1558411), wk =   0.0069444
        k(   51) = (   0.0841209   0.1443448  -0.0783373), wk =   0.0069444
        k(   52) = (   0.0833458   0.2405746  -0.0008335), wk =   0.0069444
        k(   53) = (   0.0825708   0.2405746   0.0766703), wk =   0.0069444
        k(   54) = (   0.0817958   0.2405746   0.1541741), wk =   0.0069444
        k(   55) = (   0.0810207   0.2405746   0.2316779), wk =   0.0069444
        k(   56) = (   0.0864460   0.2405746  -0.3108486), wk =   0.0069444
        k(   57) = (   0.0856709   0.2405746  -0.2333449), wk =   0.0069444
        k(   58) = (   0.0848959   0.2405746  -0.1558411), wk =   0.0069444
        k(   59) = (   0.0841209   0.2405746  -0.0783373), wk =   0.0069444
        k(   60) = (   0.0833458   0.3368045  -0.0008335), wk =   0.0069444
[...]
        k(  306) = (  -0.5008500  -0.0962299   0.0825045), wk =   0.0069444
        k(  307) = (  -0.5016251  -0.0962299   0.1600083), wk =   0.0069444
        k(  308) = (  -0.5024001  -0.0962299   0.2375121), wk =   0.0069444
        k(  309) = (  -0.4969749  -0.0962299  -0.3050144), wk =   0.0069444
        k(  310) = (  -0.4977499  -0.0962299  -0.2275106), wk =   0.0069444
        k(  311) = (  -0.4985249  -0.0962299  -0.1500068), wk =   0.0069444
        k(  312) = (  -0.4993000  -0.0962299  -0.0725030), wk =   0.0069444
        k(  313) = (  -0.5000750   0.0000000   0.0050008), wk =   0.0034722
        k(  314) = (  -0.5008500   0.0000000   0.0825045), wk =   0.0034722
        k(  315) = (  -0.5016251   0.0000000   0.1600083), wk =   0.0034722
        k(  316) = (  -0.5024001   0.0000000   0.2375121), wk =   0.0034722
        k(  317) = (  -0.4969749   0.0000000  -0.3050144), wk =   0.0034722
        k(  318) = (  -0.4977499   0.0000000  -0.2275106), wk =   0.0034722
        k(  319) = (  -0.4985249   0.0000000  -0.1500068), wk =   0.0034722
        k(  320) = (  -0.4993000   0.0000000  -0.0725030), wk =   0.0034722

                       cryst. coord.
        k(    1) = (   0.0000000   0.0000000   0.0000000), wk =   0.0017361
        k(    2) = (   0.0000000   0.0000000   0.1250000), wk =   0.0034722
        k(    3) = (   0.0000000   0.0000000   0.2500000), wk =   0.0034722
        k(    4) = (   0.0000000   0.0000000   0.3750000), wk =   0.0034722
        k(    5) = (   0.0000000   0.0000000  -0.5000000), wk =   0.0017361
        k(    6) = (   0.0000000   0.0833333   0.0000000), wk =   0.0034722
        k(    7) = (   0.0000000   0.0833333   0.1250000), wk =   0.0069444
        k(    8) = (   0.0000000   0.0833333   0.2500000), wk =   0.0069444
        k(    9) = (   0.0000000   0.0833333   0.3750000), wk =   0.0069444
        k(   10) = (   0.0000000   0.0833333  -0.5000000), wk =   0.0034722
        k(   11) = (   0.0000000   0.1666667   0.0000000), wk =   0.0034722
        k(   12) = (   0.0000000   0.1666667   0.1250000), wk =   0.0069444
        k(   13) = (   0.0000000   0.1666667   0.2500000), wk =   0.0069444
        k(   14) = (   0.0000000   0.1666667   0.3750000), wk =   0.0069444
        k(   15) = (   0.0000000   0.1666667  -0.5000000), wk =   0.0034722
        k(   16) = (   0.0000000   0.2500000   0.0000000), wk =   0.0034722
        k(   17) = (   0.0000000   0.2500000   0.1250000), wk =   0.0069444
        k(   18) = (   0.0000000   0.2500000   0.2500000), wk =   0.0069444
        k(   19) = (   0.0000000   0.2500000   0.3750000), wk =   0.0069444
        k(   20) = (   0.0000000   0.2500000  -0.5000000), wk =   0.0034722
        k(   21) = (   0.0000000   0.3333333   0.0000000), wk =   0.0034722
        k(   22) = (   0.0000000   0.3333333   0.1250000), wk =   0.0069444
        k(   23) = (   0.0000000   0.3333333   0.2500000), wk =   0.0069444
        k(   24) = (   0.0000000   0.3333333   0.3750000), wk =   0.0069444
        k(   25) = (   0.0000000   0.3333333  -0.5000000), wk =   0.0034722
        k(   26) = (   0.0000000   0.4166667   0.0000000), wk =   0.0034722
        k(   27) = (   0.0000000   0.4166667   0.1250000), wk =   0.0069444
        k(   28) = (   0.0000000   0.4166667   0.2500000), wk =   0.0069444
        k(   29) = (   0.0000000   0.4166667   0.3750000), wk =   0.0069444
        k(   30) = (   0.0000000   0.4166667  -0.5000000), wk =   0.0034722
        k(   31) = (   0.0000000  -0.5000000   0.0000000), wk =   0.0017361
        k(   32) = (   0.0000000  -0.5000000   0.1250000), wk =   0.0034722
        k(   33) = (   0.0000000  -0.5000000   0.2500000), wk =   0.0034722
        k(   34) = (   0.0000000  -0.5000000   0.3750000), wk =   0.0034722
        k(   35) = (   0.0000000  -0.5000000  -0.5000000), wk =   0.0017361
        k(   36) = (   0.0833333   0.0000000   0.0000000), wk =   0.0069444
        k(   37) = (   0.0833333   0.0000000   0.1250000), wk =   0.0069444
        k(   38) = (   0.0833333   0.0000000   0.2500000), wk =   0.0069444
        k(   39) = (   0.0833333   0.0000000   0.3750000), wk =   0.0069444
        k(   40) = (   0.0833333  -0.0000000  -0.5000000), wk =   0.0069444
        k(   41) = (   0.0833333   0.0000000  -0.3750000), wk =   0.0069444
        k(   42) = (   0.0833333   0.0000000  -0.2500000), wk =   0.0069444
        k(   43) = (   0.0833333   0.0000000  -0.1250000), wk =   0.0069444
        k(   44) = (   0.0833333   0.0833333   0.0000000), wk =   0.0069444
        k(   45) = (   0.0833333   0.0833333   0.1250000), wk =   0.0069444
        k(   46) = (   0.0833333   0.0833333   0.2500000), wk =   0.0069444
        k(   47) = (   0.0833333   0.0833333   0.3750000), wk =   0.0069444
        k(   48) = (   0.0833333   0.0833333  -0.5000000), wk =   0.0069444
        k(   49) = (   0.0833333   0.0833333  -0.3750000), wk =   0.0069444
        k(   50) = (   0.0833333   0.0833333  -0.2500000), wk =   0.0069444
        k(   51) = (   0.0833333   0.0833333  -0.1250000), wk =   0.0069444
        k(   52) = (   0.0833333   0.1666667   0.0000000), wk =   0.0069444
        k(   53) = (   0.0833333   0.1666667   0.1250000), wk =   0.0069444
        k(   54) = (   0.0833333   0.1666667   0.2500000), wk =   0.0069444
        k(   55) = (   0.0833333   0.1666667   0.3750000), wk =   0.0069444
        k(   56) = (   0.0833333   0.1666667  -0.5000000), wk =   0.0069444
        k(   57) = (   0.0833333   0.1666667  -0.3750000), wk =   0.0069444
        k(   58) = (   0.0833333   0.1666667  -0.2500000), wk =   0.0069444
        k(   59) = (   0.0833333   0.1666667  -0.1250000), wk =   0.0069444
        k(   60) = (   0.0833333   0.2500000   0.0000000), wk =   0.0069444
[...]
        k(  306) = (  -0.5000000   0.1666667   0.1250000), wk =   0.0069444
        k(  307) = (  -0.5000000   0.1666667   0.2500000), wk =   0.0069444
        k(  308) = (  -0.5000000   0.1666667   0.3750000), wk =   0.0069444
        k(  309) = (  -0.5000000   0.1666667  -0.5000000), wk =   0.0069444
        k(  310) = (  -0.5000000   0.1666667  -0.3750000), wk =   0.0069444
        k(  311) = (  -0.5000000   0.1666667  -0.2500000), wk =   0.0069444
        k(  312) = (  -0.5000000   0.1666667  -0.1250000), wk =   0.0069444
        k(  313) = (  -0.5000000   0.2500000   0.0000000), wk =   0.0034722
        k(  314) = (  -0.5000000   0.2500000   0.1250000), wk =   0.0034722
        k(  315) = (  -0.5000000   0.2500000   0.2500000), wk =   0.0034722
        k(  316) = (  -0.5000000   0.2500000   0.3750000), wk =   0.0034722
        k(  317) = (  -0.5000000   0.2500000  -0.5000000), wk =   0.0034722
        k(  318) = (  -0.5000000   0.2500000  -0.3750000), wk =   0.0034722
        k(  319) = (  -0.5000000   0.2500000  -0.2500000), wk =   0.0034722
        k(  320) = (  -0.5000000   0.2500000  -0.1250000), wk =   0.0034722

     Check: negative core charge=   -0.000003

     Initial potential from superposition of free atoms

     starting charge      51.9997, renormalised to      52.0000
     Starting wfcs are   34 randomized atomic wfcs
     Checking if some PAW data can be deallocated...

     Self-consistent Calculation

     iteration #  1     ecut=    50.00 Ry     beta= 0.40
     Davidson diagonalization with overlap

     ethr =  1.00E-02,  avg # of iterations =  2.9

     total energy              =   -1006.32219050 Ry
     estimated scf accuracy    <       0.85242588 Ry

[...]

     WARNING: integrated charge=    52.00026630, expected=    52.00000000

[...]

     total energy              =   -1006.56817199 Ry
     estimated scf accuracy    <       0.00000016 Ry

     iteration # 10     ecut=    50.00 Ry     beta= 0.40
     Davidson diagonalization with overlap

     ethr =  3.10E-10,  avg # of iterations =  2.0

     End of self-consistent calculation

          k = 0.0000 0.0000 0.0000 (  1877 PWs)   bands (ev):

  -114.5434-114.5432 -68.7452 -68.7428 -68.7400 -68.7395 -68.7355 -68.7351
    -9.2205  -8.4865   3.1598   3.1604   3.2080   3.2317   3.3563   3.3564
     4.3472   4.3473   4.5589   4.5590   4.8373   8.0991   8.0998   8.7989
     8.8979   8.9059   9.6974  14.1562  17.1107  21.8522  21.8539

     occupation numbers
     1.0000   1.0000   1.0000   1.0000   1.0000   1.0000   1.0000   1.0000
     1.0000   1.0000   1.0000   1.0000   1.0000   1.0000   1.0000   1.0000
     1.0000   1.0000   1.0000   1.0000   1.0000   1.0000   1.0000   1.0002
     1.0019   1.0023   0.0240   0.0000   0.0000   0.0000   0.0000

          k =-0.0008 0.0000 0.0775 (  1893 PWs)   bands (ev):

[...]

          k = 0.4175-0.0481-0.0817 (  1911 PWs)   bands (ev):

[...]

          k =-0.4993 0.0000-0.0725 (  1919 PWs)   bands (ev):

  -114.5433-114.5432 -68.7452 -68.7441 -68.7407 -68.7406 -68.7369 -68.7366
    -8.5262  -8.2940   3.1231   3.1660   3.5282   3.5528   3.9145   3.9225
     4.2578   4.4402   4.6192   4.8726   5.0279   5.7193   6.0220   6.3078
     7.5150   7.7327  14.8169  16.4526  17.4645  17.5892  19.5772

     occupation numbers
     1.0000   1.0000   1.0000   1.0000   1.0000   1.0000   1.0000   1.0000
     1.0000   1.0000   1.0000   1.0000   1.0000   1.0000   1.0000   1.0000
     1.0000   1.0000   1.0000   1.0000   1.0000   1.0000   1.0000   1.0000
     1.0000   1.0000   0.0000   0.0000   0.0000   0.0000   0.0000

     the Fermi energy is     9.4860 ev

     WARNING: integrated charge=    52.00007328, expected=    52.00000000

!    total energy              =   -1006.56817216 Ry
     estimated scf accuracy    <          1.0E-09 Ry
     smearing contrib. (-TS)   =       0.00000077 Ry
     internal energy E=F+TS    =   -1006.56817293 Ry

     The total energy is F=E-TS. E is the sum of the following terms:
     one-electron contribution =    -803.97644164 Ry
     hartree contribution      =     424.15439500 Ry
     xc contribution           =     -99.53032365 Ry
     ewald contribution        =    -508.18781995 Ry
     one-center paw contrib.   =     -19.02798269 Ry
      -> PAW hartree energy AE =      52.90965056 Ry
      -> PAW hartree energy PS =     -52.65824613 Ry
      -> PAW xc energy AE      =     -33.43538373 Ry
      -> PAW xc energy PS      =      14.15599660 Ry
      -> total E_H with PAW    =     424.40579944 Ry
      -> total E_XC with PAW   =    -118.80971077 Ry

     convergence has been achieved in  10 iterations

     Forces acting on atoms (cartesian axes, Ry/au):

     atom    1 type  2   force =    -0.00372575   -0.00014318   -0.00007585
     atom    2 type  2   force =    -0.00372575    0.00014318   -0.00007585
     atom    3 type  1   force =     0.00372575   -0.00016319    0.00007585
     atom    4 type  1   force =     0.00372575    0.00016319    0.00007585
     The non-local contrib.  to forces
     atom    1 type  2   force =    -0.04945603    0.00002715   -0.01240651
     atom    2 type  2   force =    -0.04945603   -0.00002715   -0.01240651
     atom    3 type  1   force =    -0.02345599   -0.00029958    0.00434257
     atom    4 type  1   force =    -0.02345599    0.00029958    0.00434257
     The ionic contribution  to forces
     atom    1 type  2   force =    -0.35066463   -0.00931262    0.08207287
     atom    2 type  2   force =    -0.35066340    0.00931259    0.08207285
     atom    3 type  1   force =     0.35066349   -0.00253099   -0.08207285
     atom    4 type  1   force =     0.35066455    0.00253102   -0.08207286
     The local contribution  to forces
     atom    1 type  2   force =     0.39637590    0.00914166   -0.06974131
     atom    2 type  2   force =     0.39641459   -0.00914165   -0.06974093
     atom    3 type  1   force =    -0.32370895    0.00266406    0.07787246
     atom    4 type  1   force =    -0.32370670   -0.00266408    0.07787248
     The core correction contribution to forces
     atom    1 type  2   force =     0.00000000    0.00000000    0.00000000
     atom    2 type  2   force =     0.00000000    0.00000000    0.00000000
     atom    3 type  1   force =     0.00022535    0.00000333   -0.00006652
     atom    4 type  1   force =     0.00022535   -0.00000333   -0.00006652
     The Hubbard contrib.    to forces
     atom    1 type  2   force =     0.00000000    0.00000000    0.00000000
     atom    2 type  2   force =     0.00000000    0.00000000    0.00000000
     atom    3 type  1   force =     0.00000000    0.00000000    0.00000000
     atom    4 type  1   force =     0.00000000    0.00000000    0.00000000
     The SCF correction term to forces
     atom    1 type  2   force =    -0.00000077    0.00000061   -0.00000378
     atom    2 type  2   force =    -0.00000077   -0.00000061   -0.00000378
     atom    3 type  1   force =     0.00000037   -0.00000000   -0.00000253
     atom    4 type  1   force =     0.00000037    0.00000000   -0.00000253

     Total force =     0.007459     Total SCF correction =     0.000007

     Computing stress (Cartesian axis) and pressure

          total   stress  (Ry/bohr**3)                   (kbar)     P=       54.65
   0.00037065  -0.00000000  -0.00007281           54.53       -0.00      -10.71
   0.00000000   0.00036965  -0.00000000            0.00       54.38       -0.00
  -0.00007281  -0.00000000   0.00037418          -10.71       -0.00       55.04

     kinetic stress (kbar)  35031.74      0.00    -16.18
                               -0.00  35031.84      0.00
                              -16.18      0.00  35061.57

     local   stress (kbar)  -5366.27     -0.00    -45.34
                               -0.00  -5366.16      0.00
                              -45.34      0.00  -9563.72

     nonloc. stress (kbar)   -723.38     -0.00      3.80
                               -0.00   -723.32      0.00
                                3.80      0.00   -736.36

     hartree stress (kbar)  64367.38      0.00     26.19
                                0.00  64367.73      0.00
                               26.19      0.00  66359.95

     exc-cor stress (kbar) -14219.11      0.00      0.28
                                0.00 -14219.11      0.00
                                0.28      0.00 -14219.24

     corecor stress (kbar)   -390.76     -0.00      0.06
                               -0.00   -390.76      0.00
                                0.06      0.00   -390.79

     ewald   stress (kbar) -78645.07      0.00     20.48
                                0.00 -78645.84     -0.00
                               20.48     -0.00 -76456.37

     hubbard stress (kbar)      0.00      0.00      0.00
                                0.00      0.00      0.00
                                0.00      0.00      0.00

     DFT-D   stress (kbar)      0.00      0.00      0.00
                                0.00      0.00      0.00
                                0.00      0.00      0.00

     XDM     stress (kbar)      0.00      0.00      0.00
                                0.00      0.00      0.00
                                0.00      0.00      0.00

     dft-nl  stress (kbar)      0.00      0.00      0.00
                                0.00      0.00      0.00
                                0.00      0.00      0.00

     TS-vdW  stress (kbar)      0.00      0.00      0.00
                                0.00      0.00      0.00
                                0.00      0.00      0.00

     MDB     stress (kbar)      0.00      0.00      0.00
                                0.00      0.00      0.00
                                0.00      0.00      0.00

     3D-RISM stress (kbar)      0.00      0.00      0.00
                                0.00      0.00      0.00
                                0.00      0.00      0.00

     Writing all to output data dir ./temp_hexag/aiida.save/ :
     XML data file, charge density, pseudopotentials, collected wavefunctions

     General routines

     Parallel routines

     PAW routines

   This run was terminated on:  23:42:23  14Jun2024

   JOB DONE.