     Program PWSCF v.7.3.1 starts on 14Jun2024 at 23:42:53

     Waiting for input...
     Reading input from standard input

     Current dimensions of program PWSCF are:
     Max number of different atomic species (ntypx) = 10
     Max number of k-points (npk) =  40000
     Max angular momentum in pseudopotentials (lmaxx) =  4
     file O.pbe-n-kjpaw_psl.0.1.UPF: wavefunction(s)  2P renormalized
     Message from routine setup:
     using ibrav=0 with symmetry is DISCOURAGED, use correct ibrav instead

     Subspace diagonalization in iterative solution of the eigenvalue problem:
     a serial algorithm will be used

     Using Slab Decomposition

     bravais-lattice index     =            0
     lattice parameter (alat)  =       6.1177  a.u.
     unit-cell volume          =     319.8198 (a.u.)^3
     number of atoms/cell      =            4
     number of atomic types    =            2
     number of electrons       =        52.00
     number of Kohn-Sham states=           31
     kinetic-energy cutoff     =      50.0000  Ry
     charge density cutoff     =     400.0000  Ry
     scf convergence threshold =      2.0E-08
     mixing beta               =       0.4000
     number of iterations used =            8  plain     mixing
     Exchange-correlation= SLA  PW   PBE  PBE
                           (   1   4   3   4   0   0   0)

     celldm(1)=   6.117707  celldm(2)=   0.000000  celldm(3)=   0.000000
     celldm(4)=   0.000000  celldm(5)=   0.000000  celldm(6)=   0.000000

     crystal axes: (cart. coord. in units of alat)
               a(1) = (   1.000000   0.000000   0.000000 )
               a(2) = (  -0.500000   0.866025   0.008660 )
               a(3) = (   0.000000   0.016131   1.613066 )

     reciprocal axes: (cart. coord. in units 2 pi/alat)
               b(1) = (  1.000000  0.577408 -0.005774 )
               b(2) = (  0.000000  1.154816 -0.011548 )
               b(3) = (  0.000000 -0.006200  0.619999 )

     PseudoPot. # 1 for O  read from file:
     ../SSSP_1.3.0_PBE_efficiency/O.pbe-n-kjpaw_psl.0.1.UPF
     MD5 check sum: 0234752ac141de4415c5fc33072bef88
     Pseudo is Projector augmented-wave + core cor, Zval =  6.0
     Generated using "atomic" code by A. Dal Corso  v.5.0.99 svn rev. 10869
     Shape of augmentation charge: BESSEL
     Using radial grid of 1095 points,  4 beta functions with:
                l(1) =   0
                l(2) =   0
                l(3) =   1
                l(4) =   1
     Q(r) pseudized with 0 coefficients

     PseudoPot. # 2 for Zn read from file:
     ../SSSP_1.3.0_PBE_efficiency/Zn_pbe_v1.uspp.F.UPF
     MD5 check sum: df62231357ef9e81f77b2b3087fa5675
     Pseudo is Ultrasoft, Zval = 20.0
     Generated by new atomic code, or converted to UPF format
     Using radial grid of  943 points,  6 beta functions with:
                l(1) =   0
                l(2) =   0
                l(3) =   1
                l(4) =   1
                l(5) =   2
                l(6) =   2
     Q(r) pseudized with  8 coefficients,  rinner =    1.100   1.100   1.100
                                                       1.100   1.100

     atomic species   valence    mass     pseudopotential
     O                 6.00    15.99940     O ( 1.00)
     Zn               20.00    65.38000     Zn( 1.00)

      2 Sym. Ops. (no inversion) found

                                    s                        frac. trans.

      isym =  1     identity

 cryst.   s( 1) = (     1          0          0      )
                  (     0          1          0      )
                  (     0          0          1      )

 cart.    s( 1) = (  1.0000000  0.0000000  0.0000000 )
                  (  0.0000000  1.0000000  0.0000000 )
                  (  0.0000000  0.0000000  1.0000000 )

      isym =  2     inv. 180 deg rotation - cart. axis [1,0,0]

 cryst.   s( 2) = (    -1          0          0      )
                  (     1          1          0      )
                  (     0          0          1      )

 cart.    s( 2) = ( -1.0000000  0.0000000  0.0000000 )
                  (  0.0000000  1.0000000  0.0000000 )
                  (  0.0000000  0.0000000  1.0000000 )

   Cartesian axes

     site n.     atom                  positions (alat units)
         1        Zn     tau(   1) = (   0.5000000   0.2967500   0.8103743  )
         2        Zn     tau(   2) = (  -0.0000000   0.5773598   0.0067280  )
         3        O      tau(   3) = (   0.5000000   0.3028656   1.4219306  )
         4        O      tau(   4) = (  -0.0000000   0.5834754   0.6182842  )

   Crystallographic axes

     site n.     atom                  positions (cryst. coord.)
         1        Zn     tau(   1) = (  0.6666667  0.3333333  0.5005917  )
         2        Zn     tau(   2) = (  0.3333333  0.6666667  0.0005917  )
         3        O      tau(   3) = (  0.6666667  0.3333333  0.8797183  )
         4        O      tau(   4) = (  0.3333333  0.6666667  0.3797183  )

     number of k points=   320  Marzari-Vanderbilt smearing, width (Ry)=  0.0147
                       cart. coord. in units 2pi/alat
        k(    1) = (   0.0000000   0.0000000   0.0000000), wk =   0.0017361
        k(    2) = (   0.0000000  -0.0007750   0.0774999), wk =   0.0034722
        k(    3) = (   0.0000000  -0.0015500   0.1549998), wk =   0.0034722
        k(    4) = (   0.0000000  -0.0023250   0.2324998), wk =   0.0034722
        k(    5) = (   0.0000000   0.0031000  -0.3099997), wk =   0.0017361
        k(    6) = (   0.0000000   0.0962347  -0.0009623), wk =   0.0034722
        k(    7) = (   0.0000000   0.0954597   0.0765376), wk =   0.0034722
        k(    8) = (   0.0000000   0.0946847   0.1540375), wk =   0.0034722
        k(    9) = (   0.0000000   0.0939097   0.2315374), wk =   0.0034722
        k(   10) = (   0.0000000   0.0993347  -0.3109620), wk =   0.0034722
        k(   11) = (   0.0000000   0.0985597  -0.2334621), wk =   0.0034722
        k(   12) = (   0.0000000   0.0977847  -0.1559622), wk =   0.0034722
        k(   13) = (   0.0000000   0.0970097  -0.0784623), wk =   0.0034722
        k(   14) = (   0.0000000   0.1924693  -0.0019247), wk =   0.0034722
        k(   15) = (   0.0000000   0.1916943   0.0755752), wk =   0.0034722
        k(   16) = (   0.0000000   0.1909193   0.1530752), wk =   0.0034722
        k(   17) = (   0.0000000   0.1901443   0.2305751), wk =   0.0034722
        k(   18) = (   0.0000000   0.1955693  -0.3119244), wk =   0.0034722
        k(   19) = (   0.0000000   0.1947943  -0.2344245), wk =   0.0034722
        k(   20) = (   0.0000000   0.1940193  -0.1569245), wk =   0.0034722
        k(   21) = (   0.0000000   0.1932443  -0.0794246), wk =   0.0034722
        k(   22) = (   0.0000000   0.2887040  -0.0028870), wk =   0.0034722
        k(   23) = (   0.0000000   0.2879290   0.0746129), wk =   0.0034722
        k(   24) = (   0.0000000   0.2871540   0.1521128), wk =   0.0034722
        k(   25) = (   0.0000000   0.2863790   0.2296127), wk =   0.0034722
        k(   26) = (   0.0000000   0.2918040  -0.3128867), wk =   0.0034722
        k(   27) = (   0.0000000   0.2910290  -0.2353868), wk =   0.0034722
        k(   28) = (   0.0000000   0.2902540  -0.1578869), wk =   0.0034722
        k(   29) = (   0.0000000   0.2894790  -0.0803870), wk =   0.0034722
        k(   30) = (   0.0000000   0.3849387  -0.0038494), wk =   0.0034722
        k(   31) = (   0.0000000   0.3841637   0.0736505), wk =   0.0034722
        k(   32) = (   0.0000000   0.3833887   0.1511505), wk =   0.0034722
        k(   33) = (   0.0000000   0.3826137   0.2286504), wk =   0.0034722
        k(   34) = (   0.0000000   0.3880387  -0.3138491), wk =   0.0034722
        k(   35) = (   0.0000000   0.3872637  -0.2363492), wk =   0.0034722
        k(   36) = (   0.0000000   0.3864887  -0.1588492), wk =   0.0034722
        k(   37) = (   0.0000000   0.3857137  -0.0813493), wk =   0.0034722
        k(   38) = (   0.0000000   0.4811733  -0.0048117), wk =   0.0034722
        k(   39) = (   0.0000000   0.4803983   0.0726882), wk =   0.0034722
        k(   40) = (   0.0000000   0.4796233   0.1501881), wk =   0.0034722
        k(   41) = (   0.0000000   0.4788483   0.2276880), wk =   0.0034722
        k(   42) = (   0.0000000   0.4842733  -0.3148114), wk =   0.0034722
        k(   43) = (   0.0000000   0.4834983  -0.2373115), wk =   0.0034722
        k(   44) = (   0.0000000   0.4827233  -0.1598116), wk =   0.0034722
        k(   45) = (   0.0000000   0.4819483  -0.0823117), wk =   0.0034722
        k(   46) = (   0.0000000  -0.5774080   0.0057741), wk =   0.0017361
        k(   47) = (   0.0000000  -0.5781830   0.0832740), wk =   0.0034722
        k(   48) = (   0.0000000  -0.5789580   0.1607739), wk =   0.0034722
        k(   49) = (   0.0000000  -0.5797330   0.2382738), wk =   0.0034722
        k(   50) = (   0.0000000  -0.5743080  -0.3042256), wk =   0.0017361
        k(   51) = (   0.0833333   0.0481173  -0.0004812), wk =   0.0069444
        k(   52) = (   0.0833333   0.0473423   0.0770187), wk =   0.0069444
        k(   53) = (   0.0833333   0.0465673   0.1545187), wk =   0.0069444
        k(   54) = (   0.0833333   0.0457923   0.2320186), wk =   0.0069444
        k(   55) = (   0.0833333   0.0512173  -0.3104809), wk =   0.0069444
        k(   56) = (   0.0833333   0.0504423  -0.2329809), wk =   0.0069444
        k(   57) = (   0.0833333   0.0496673  -0.1554810), wk =   0.0069444
        k(   58) = (   0.0833333   0.0488923  -0.0779811), wk =   0.0069444
        k(   59) = (   0.0833333   0.1443520  -0.0014435), wk =   0.0069444
        k(   60) = (   0.0833333   0.1435770   0.0760564), wk =   0.0069444
[...]
        k(  306) = (  -0.5000000  -0.1909193  -0.1530752), wk =   0.0069444
        k(  307) = (  -0.5000000  -0.1916943  -0.0755752), wk =   0.0069444
        k(  308) = (  -0.5000000  -0.0962347   0.0009623), wk =   0.0069444
        k(  309) = (  -0.5000000  -0.0970097   0.0784623), wk =   0.0069444
        k(  310) = (  -0.5000000  -0.0977847   0.1559622), wk =   0.0069444
        k(  311) = (  -0.5000000  -0.0985597   0.2334621), wk =   0.0069444
        k(  312) = (  -0.5000000  -0.0931347  -0.3090373), wk =   0.0069444
        k(  313) = (  -0.5000000  -0.0939097  -0.2315374), wk =   0.0069444
        k(  314) = (  -0.5000000  -0.0946847  -0.1540375), wk =   0.0069444
        k(  315) = (  -0.5000000  -0.0954597  -0.0765376), wk =   0.0069444
        k(  316) = (  -0.5000000   0.0000000   0.0000000), wk =   0.0034722
        k(  317) = (  -0.5000000  -0.0007750   0.0774999), wk =   0.0069444
        k(  318) = (  -0.5000000  -0.0015500   0.1549998), wk =   0.0069444
        k(  319) = (  -0.5000000  -0.0023250   0.2324998), wk =   0.0069444
        k(  320) = (  -0.5000000   0.0031000  -0.3099997), wk =   0.0034722

                       cryst. coord.
        k(    1) = (   0.0000000   0.0000000   0.0000000), wk =   0.0017361
        k(    2) = (   0.0000000   0.0000000   0.1250000), wk =   0.0034722
        k(    3) = (   0.0000000   0.0000000   0.2500000), wk =   0.0034722
        k(    4) = (   0.0000000  -0.0000000   0.3750000), wk =   0.0034722
        k(    5) = (   0.0000000   0.0000000  -0.5000000), wk =   0.0017361
        k(    6) = (   0.0000000   0.0833333   0.0000000), wk =   0.0034722
        k(    7) = (   0.0000000   0.0833333   0.1250000), wk =   0.0034722
        k(    8) = (   0.0000000   0.0833333   0.2500000), wk =   0.0034722
        k(    9) = (   0.0000000   0.0833333   0.3750000), wk =   0.0034722
        k(   10) = (   0.0000000   0.0833333  -0.5000000), wk =   0.0034722
        k(   11) = (   0.0000000   0.0833333  -0.3750000), wk =   0.0034722
        k(   12) = (   0.0000000   0.0833333  -0.2500000), wk =   0.0034722
        k(   13) = (   0.0000000   0.0833333  -0.1250000), wk =   0.0034722
        k(   14) = (   0.0000000   0.1666667   0.0000000), wk =   0.0034722
        k(   15) = (   0.0000000   0.1666667   0.1250000), wk =   0.0034722
        k(   16) = (   0.0000000   0.1666667   0.2500000), wk =   0.0034722
        k(   17) = (   0.0000000   0.1666667   0.3750000), wk =   0.0034722
        k(   18) = (   0.0000000   0.1666667  -0.5000000), wk =   0.0034722
        k(   19) = (   0.0000000   0.1666667  -0.3750000), wk =   0.0034722
        k(   20) = (   0.0000000   0.1666667  -0.2500000), wk =   0.0034722
        k(   21) = (   0.0000000   0.1666667  -0.1250000), wk =   0.0034722
        k(   22) = (   0.0000000   0.2500000   0.0000000), wk =   0.0034722
        k(   23) = (   0.0000000   0.2500000   0.1250000), wk =   0.0034722
        k(   24) = (   0.0000000   0.2500000   0.2500000), wk =   0.0034722
        k(   25) = (   0.0000000   0.2500000   0.3750000), wk =   0.0034722
        k(   26) = (   0.0000000   0.2500000  -0.5000000), wk =   0.0034722
        k(   27) = (   0.0000000   0.2500000  -0.3750000), wk =   0.0034722
        k(   28) = (   0.0000000   0.2500000  -0.2500000), wk =   0.0034722
        k(   29) = (   0.0000000   0.2500000  -0.1250000), wk =   0.0034722
        k(   30) = (   0.0000000   0.3333333   0.0000000), wk =   0.0034722
        k(   31) = (   0.0000000   0.3333333   0.1250000), wk =   0.0034722
        k(   32) = (   0.0000000   0.3333333   0.2500000), wk =   0.0034722
        k(   33) = (   0.0000000   0.3333333   0.3750000), wk =   0.0034722
        k(   34) = (   0.0000000   0.3333333  -0.5000000), wk =   0.0034722
        k(   35) = (   0.0000000   0.3333333  -0.3750000), wk =   0.0034722
        k(   36) = (   0.0000000   0.3333333  -0.2500000), wk =   0.0034722
        k(   37) = (   0.0000000   0.3333333  -0.1250000), wk =   0.0034722
        k(   38) = (   0.0000000   0.4166667   0.0000000), wk =   0.0034722
        k(   39) = (   0.0000000   0.4166667   0.1250000), wk =   0.0034722
        k(   40) = (   0.0000000   0.4166667   0.2500000), wk =   0.0034722
        k(   41) = (   0.0000000   0.4166667   0.3750000), wk =   0.0034722
        k(   42) = (   0.0000000   0.4166667  -0.5000000), wk =   0.0034722
        k(   43) = (   0.0000000   0.4166667  -0.3750000), wk =   0.0034722
        k(   44) = (   0.0000000   0.4166667  -0.2500000), wk =   0.0034722
        k(   45) = (   0.0000000   0.4166667  -0.1250000), wk =   0.0034722
        k(   46) = (   0.0000000  -0.5000000   0.0000000), wk =   0.0017361
        k(   47) = (   0.0000000  -0.5000000   0.1250000), wk =   0.0034722
        k(   48) = (   0.0000000  -0.5000000   0.2500000), wk =   0.0034722
        k(   49) = (   0.0000000  -0.5000000   0.3750000), wk =   0.0034722
        k(   50) = (   0.0000000  -0.5000000  -0.5000000), wk =   0.0017361
        k(   51) = (   0.0833333   0.0000000   0.0000000), wk =   0.0069444
        k(   52) = (   0.0833333   0.0000000   0.1250000), wk =   0.0069444
        k(   53) = (   0.0833333   0.0000000   0.2500000), wk =   0.0069444
        k(   54) = (   0.0833333   0.0000000   0.3750000), wk =   0.0069444
        k(   55) = (   0.0833333   0.0000000  -0.5000000), wk =   0.0069444
        k(   56) = (   0.0833333   0.0000000  -0.3750000), wk =   0.0069444
        k(   57) = (   0.0833333   0.0000000  -0.2500000), wk =   0.0069444
        k(   58) = (   0.0833333   0.0000000  -0.1250000), wk =   0.0069444
        k(   59) = (   0.0833333   0.0833333   0.0000000), wk =   0.0069444
        k(   60) = (   0.0833333   0.0833333   0.1250000), wk =   0.0069444
[...]
        k(  306) = (  -0.5000000   0.0833333  -0.2500000), wk =   0.0069444
        k(  307) = (  -0.5000000   0.0833333  -0.1250000), wk =   0.0069444
        k(  308) = (  -0.5000000   0.1666667  -0.0000000), wk =   0.0069444
        k(  309) = (  -0.5000000   0.1666667   0.1250000), wk =   0.0069444
        k(  310) = (  -0.5000000   0.1666667   0.2500000), wk =   0.0069444
        k(  311) = (  -0.5000000   0.1666667   0.3750000), wk =   0.0069444
        k(  312) = (  -0.5000000   0.1666667  -0.5000000), wk =   0.0069444
        k(  313) = (  -0.5000000   0.1666667  -0.3750000), wk =   0.0069444
        k(  314) = (  -0.5000000   0.1666667  -0.2500000), wk =   0.0069444
        k(  315) = (  -0.5000000   0.1666667  -0.1250000), wk =   0.0069444
        k(  316) = (  -0.5000000   0.2500000   0.0000000), wk =   0.0034722
        k(  317) = (  -0.5000000   0.2500000   0.1250000), wk =   0.0069444
        k(  318) = (  -0.5000000   0.2500000   0.2500000), wk =   0.0069444
        k(  319) = (  -0.5000000   0.2500000   0.3750000), wk =   0.0069444
        k(  320) = (  -0.5000000   0.2500000  -0.5000000), wk =   0.0034722

     Check: negative core charge=   -0.000003

     Initial potential from superposition of free atoms

     starting charge      51.9997, renormalised to      52.0000
     Starting wfcs are   34 randomized atomic wfcs
     Checking if some PAW data can be deallocated...

     Self-consistent Calculation

     iteration #  1     ecut=    50.00 Ry     beta= 0.40
     Davidson diagonalization with overlap

     ethr =  1.00E-02,  avg # of iterations =  2.9

     total energy              =   -1006.32221172 Ry
     estimated scf accuracy    <       0.85233147 Ry

[...]

     WARNING: integrated charge=    52.00026662, expected=    52.00000000

[...]

     total energy              =   -1006.56817173 Ry
     estimated scf accuracy    <       0.00000002 Ry

     iteration # 11     ecut=    50.00 Ry     beta= 0.40
     Davidson diagonalization with overlap

     ethr =  3.89E-11,  avg # of iterations =  2.0

     End of self-consistent calculation

          k = 0.0000 0.0000 0.0000 (  1877 PWs)   bands (ev):

  -114.5436-114.5434 -68.7454 -68.7427 -68.7410 -68.7390 -68.7360 -68.7351
    -9.2204  -8.4864   3.1597   3.1603   3.2079   3.2318   3.3563   3.3563
     4.3471   4.3471   4.5587   4.5589   4.8372   8.0992   8.0998   8.7990
     8.8979   8.9059   9.6974  14.1562  17.1107  21.8522  21.8538

     occupation numbers
     1.0000   1.0000   1.0000   1.0000   1.0000   1.0000   1.0000   1.0000
     1.0000   1.0000   1.0000   1.0000   1.0000   1.0000   1.0000   1.0000
     1.0000   1.0000   1.0000   1.0000   1.0000   1.0000   1.0000   1.0002
     1.0019   1.0023   0.0241   0.0000   0.0000   0.0000   0.0000

[...]

          k = 0.4167-0.0473-0.0770 (  1911 PWs)   bands (ev):

[...]

          k =-0.5000-0.2887 0.0029 (  1916 PWs)   bands (ev):

[...]

          k =-0.5000 0.0031-0.3100 (  1908 PWs)   bands (ev):

  -114.5434-114.5434 -68.7452 -68.7435 -68.7427 -68.7396 -68.7379 -68.7359
    -8.4088  -8.3970   2.9502   2.9631   3.4522   3.4674   3.7028   3.7560
     4.4640   4.4723   4.6821   4.6915   5.4494   5.4972   6.6739   6.6903
     7.5782   7.6362  15.3675  15.3885  17.6309  17.8284  18.6987

     occupation numbers
     1.0000   1.0000   1.0000   1.0000   1.0000   1.0000   1.0000   1.0000
     1.0000   1.0000   1.0000   1.0000   1.0000   1.0000   1.0000   1.0000
     1.0000   1.0000   1.0000   1.0000   1.0000   1.0000   1.0000   1.0000
     1.0000   1.0000   0.0000   0.0000   0.0000   0.0000   0.0000

     the Fermi energy is     9.4860 ev

     WARNING: integrated charge=    52.00007330, expected=    52.00000000

!    total energy              =   -1006.56817178 Ry
     estimated scf accuracy    <          3.4E-10 Ry
     smearing contrib. (-TS)   =       0.00000077 Ry
     internal energy E=F+TS    =   -1006.56817255 Ry

     The total energy is F=E-TS. E is the sum of the following terms:
     one-electron contribution =    -803.97689574 Ry
     hartree contribution      =     424.15485985 Ry
     xc contribution           =     -99.53033437 Ry
     ewald contribution        =    -508.18781995 Ry
     one-center paw contrib.   =     -19.02798233 Ry
      -> PAW hartree energy AE =      52.90922574 Ry
      -> PAW hartree energy PS =     -52.65782620 Ry
      -> PAW xc energy AE      =     -33.43530382 Ry
      -> PAW xc energy PS      =      14.15592195 Ry
      -> total E_H with PAW    =     424.40625939 Ry
      -> total E_XC with PAW   =    -118.80971624 Ry

     convergence has been achieved in  11 iterations

     Forces acting on atoms (cartesian axes, Ry/au):

     atom    1 type  2   force =     0.00000000   -0.00358382   -0.00007860
     atom    2 type  2   force =     0.00000000   -0.00387033   -0.00007653
     atom    3 type  1   force =     0.00000000    0.00388957    0.00007843
     atom    4 type  1   force =     0.00000000    0.00356459    0.00007670
     The non-local contrib.  to forces
     atom    1 type  2   force =     0.00000000   -0.04947982   -0.01240257
     atom    2 type  2   force =     0.00000000   -0.04942479   -0.01240924
     atom    3 type  1   force =     0.00000000   -0.02315678    0.00434001
     atom    4 type  1   force =     0.00000000   -0.02375429    0.00434530
     The ionic contribution  to forces
     atom    1 type  2   force =    -0.00000063   -0.34135202    0.08189929
     atom    2 type  2   force =     0.00000060   -0.35997604    0.08224642
     atom    3 type  1   force =    -0.00000052    0.35319540   -0.08207432
     atom    4 type  1   force =     0.00000055    0.34813267   -0.08207139
     The local contribution  to forces
     atom    1 type  2   force =    -0.00001934    0.38724957   -0.06956785
     atom    2 type  2   force =     0.00001935    0.40553237   -0.06991365
     atom    3 type  1   force =    -0.00000114   -0.32637361    0.07787561
     atom    4 type  1   force =     0.00000112   -0.32104617    0.07786726
     The core correction contribution to forces
     atom    1 type  2   force =     0.00000000    0.00000000    0.00000000
     atom    2 type  2   force =     0.00000000    0.00000000    0.00000000
     atom    3 type  1   force =    -0.00000000    0.00022163   -0.00006584
     atom    4 type  1   force =     0.00000000    0.00022913   -0.00006698
     The Hubbard contrib.    to forces
     atom    1 type  2   force =     0.00000000    0.00000000    0.00000000
     atom    2 type  2   force =     0.00000000    0.00000000    0.00000000
     atom    3 type  1   force =     0.00000000    0.00000000    0.00000000
     atom    4 type  1   force =     0.00000000    0.00000000    0.00000000
     The SCF correction term to forces
     atom    1 type  2   force =    -0.00000000   -0.00000284   -0.00001152
     atom    2 type  2   force =     0.00000000   -0.00000317   -0.00000411
     atom    3 type  1   force =    -0.00000000    0.00000162   -0.00000107
     atom    4 type  1   force =     0.00000000    0.00000193   -0.00000153

     Total force =     0.007462     Total SCF correction =     0.000013

     Computing stress (Cartesian axis) and pressure

          total   stress  (Ry/bohr**3)                   (kbar)     P=       55.22
   0.00037353   0.00000000   0.00000000           54.95        0.00        0.00
   0.00000000   0.00037453  -0.00007280            0.00       55.10      -10.71
   0.00000000  -0.00007280   0.00037805            0.00      -10.71       55.61

     kinetic stress (kbar)  35031.77      0.00      0.00
                                0.00  35031.67    -16.18
                                0.00    -16.18  35061.50

     local   stress (kbar)  -5366.11     -0.00      0.00
                               -0.00  -5366.23    -45.34
                                0.00    -45.34  -9563.68

     nonloc. stress (kbar)   -722.80     -0.00      0.00
                               -0.00   -722.85      3.80
                                0.00      3.80   -735.84

     hartree stress (kbar)  64367.80     -0.00      0.00
                               -0.00  64367.45     26.19
                                0.00     26.19  66360.02

     exc-cor stress (kbar) -14219.11      0.00      0.00
                                0.00 -14219.11      0.28
                                0.00      0.28 -14219.24

     corecor stress (kbar)   -390.76     -0.00      0.00
                               -0.00   -390.76      0.06
                                0.00      0.06   -390.79

     ewald   stress (kbar) -78645.84      0.00     -0.00
                                0.00 -78645.07     20.48
                               -0.00     20.48 -76456.37

     hubbard stress (kbar)      0.00      0.00      0.00
                                0.00      0.00      0.00
                                0.00      0.00      0.00

     DFT-D   stress (kbar)      0.00      0.00      0.00
                                0.00      0.00      0.00
                                0.00      0.00      0.00

     XDM     stress (kbar)      0.00      0.00      0.00
                                0.00      0.00      0.00
                                0.00      0.00      0.00

     dft-nl  stress (kbar)      0.00      0.00      0.00
                                0.00      0.00      0.00
                                0.00      0.00      0.00

     TS-vdW  stress (kbar)      0.00      0.00      0.00
                                0.00      0.00      0.00
                                0.00      0.00      0.00

     MDB     stress (kbar)      0.00      0.00      0.00
                                0.00      0.00      0.00
                                0.00      0.00      0.00

     3D-RISM stress (kbar)      0.00      0.00      0.00
                                0.00      0.00      0.00
                                0.00      0.00      0.00

     Writing all to output data dir ./temp_hexag/aiida.save/ :
     XML data file, charge density, pseudopotentials, collected wavefunctions

     General routines

     Parallel routines

     PAW routines

   This run was terminated on:  23:54:21  14Jun2024

   JOB DONE.