     Program PWSCF v.7.3.1 starts on 11Jun2024 at 22: 8: 7

     Waiting for input...
     Reading input from standard input

     Current dimensions of program PWSCF are:
     Max number of different atomic species (ntypx) = 10
     Max number of k-points (npk) =  40000
     Max angular momentum in pseudopotentials (lmaxx) =  4

     File ./temp_hexag/aiida.update deleted, as requested

     File ./temp_hexag/aiida.bfgs deleted, as requested
     file O.pbe-n-kjpaw_psl.0.1.UPF: wavefunction(s)  2P renormalized
     Message from routine setup:
     using ibrav=0 with symmetry is DISCOURAGED, use correct ibrav instead

     Subspace diagonalization in iterative solution of the eigenvalue problem:
     a serial algorithm will be used

     Using Slab Decomposition

     bravais-lattice index     =            0
     lattice parameter (alat)  =       6.1177  a.u.
     unit-cell volume          =     319.8518 (a.u.)^3
     number of atoms/cell      =            4
     number of atomic types    =            2
     number of electrons       =        52.00
     number of Kohn-Sham states=           31
     kinetic-energy cutoff     =      50.0000  Ry
     charge density cutoff     =     400.0000  Ry
     scf convergence threshold =      2.0E-08
     mixing beta               =       0.4000
     number of iterations used =            8  plain     mixing
     energy convergence thresh.=      4.0E-05
     force convergence thresh. =      1.0E-04
     press convergence thresh. =      5.0E-01
     Exchange-correlation= SLA  PW   PBE  PBE
                           (   1   4   3   4   0   0   0)
     nstep                     =           50

     celldm(1)=   6.117707  celldm(2)=   0.000000  celldm(3)=   0.000000
     celldm(4)=   0.000000  celldm(5)=   0.000000  celldm(6)=   0.000000

     crystal axes: (cart. coord. in units of alat)
               a(1) = (   1.000000   0.000000   0.000000 )
               a(2) = (  -0.500000   0.866025   0.000000 )
               a(3) = (   0.000000   0.000000   1.613066 )

     reciprocal axes: (cart. coord. in units 2 pi/alat)
               b(1) = (  1.000000  0.577350 -0.000000 )
               b(2) = (  0.000000  1.154701  0.000000 )
               b(3) = (  0.000000 -0.000000  0.619937 )

     PseudoPot. # 1 for O  read from file:
     ../SSSP_1.3.0_PBE_efficiency/O.pbe-n-kjpaw_psl.0.1.UPF
     MD5 check sum: 0234752ac141de4415c5fc33072bef88
     Pseudo is Projector augmented-wave + core cor, Zval =  6.0
     Generated using "atomic" code by A. Dal Corso  v.5.0.99 svn rev. 10869
     Shape of augmentation charge: BESSEL
     Using radial grid of 1095 points,  4 beta functions with:
                l(1) =   0
                l(2) =   0
                l(3) =   1
                l(4) =   1
     Q(r) pseudized with 0 coefficients

     PseudoPot. # 2 for Zn read from file:
     ../SSSP_1.3.0_PBE_efficiency/Zn_pbe_v1.uspp.F.UPF
     MD5 check sum: df62231357ef9e81f77b2b3087fa5675
     Pseudo is Ultrasoft, Zval = 20.0
     Generated by new atomic code, or converted to UPF format
     Using radial grid of  943 points,  6 beta functions with:
                l(1) =   0
                l(2) =   0
                l(3) =   1
                l(4) =   1
                l(5) =   2
                l(6) =   2
     Q(r) pseudized with  8 coefficients,  rinner =    1.100   1.100   1.100
                                                       1.100   1.100

     atomic species   valence    mass     pseudopotential
     O                 6.00    15.99940     O ( 1.00)
     Zn               20.00    65.38000     Zn( 1.00)

     12 Sym. Ops. (no inversion) found ( 6 have fractional translation)

                                    s                        frac. trans.

      isym =  1     identity

 cryst.   s( 1) = (     1          0          0      )
                  (     0          1          0      )
                  (     0          0          1      )

 cart.    s( 1) = (  1.0000000  0.0000000  0.0000000 )
                  (  0.0000000  1.0000000  0.0000000 )
                  (  0.0000000  0.0000000  1.0000000 )

      isym =  2     180 deg rotation - cart. axis [0,0,1]

 cryst.   s( 2) = (    -1          0          0      )    f =(  0.0000000 )
                  (     0         -1          0      )       ( -0.0000000 )
                  (     0          0          1      )       (  0.5000000 )

 cart.    s( 2) = ( -1.0000000  0.0000000  0.0000000 )    f =(  0.0000000 )
                  (  0.0000000 -1.0000000  0.0000000 )       ( -0.0000000 )
                  (  0.0000000  0.0000000  1.0000000 )       (  0.8065331 )

      isym =  3      60 deg rotation - cryst. axis [0,0,1]

[...]

      isym =  7     inv. 180 deg rotation - cart. axis [0,1,0]

[...]

      isym =  9     inv. 180 deg rotation - cryst. axis [1,-1,0]

[...]

 cryst.   s(10) = (    -1         -1          0      )    f =(  0.0000000 )
                  (     0          1          0      )       (  0.0000000 )
                  (     0          0          1      )       (  0.5000000 )

 cart.    s(10) = ( -0.5000000 -0.8660254  0.0000000 )    f =( -0.0000000 )
                  ( -0.8660254  0.5000000  0.0000000 )       (  0.0000000 )
                  (  0.0000000  0.0000000  1.0000000 )       (  0.8065331 )

[...]

 cryst.   s(11) = (     1          1          0      )
                  (     0         -1          0      )
                  (     0          0          1      )

 cart.    s(11) = (  0.5000000  0.8660254  0.0000000 )
                  (  0.8660254 -0.5000000  0.0000000 )
                  (  0.0000000  0.0000000  1.0000000 )

[...]

   Cartesian axes

     site n.     atom                  positions (alat units)
         1        Zn     tau(   1) = (   0.5000000   0.2886751   0.8074875  )
         2        Zn     tau(   2) = (  -0.0000000   0.5773503   0.0009545  )
         3        O      tau(   3) = (   0.5000000   0.2886751   1.4190438  )
         4        O      tau(   4) = (  -0.0000000   0.5773503   0.6125107  )

   Crystallographic axes

     site n.     atom                  positions (cryst. coord.)
         1        Zn     tau(   1) = (  0.6666667  0.3333333  0.5005917  )
         2        Zn     tau(   2) = (  0.3333333  0.6666667  0.0005917  )
         3        O      tau(   3) = (  0.6666667  0.3333333  0.8797183  )
         4        O      tau(   4) = (  0.3333333  0.6666667  0.3797183  )

     number of k points=    95  Marzari-Vanderbilt smearing, width (Ry)=  0.0147
                       cart. coord. in units 2pi/alat
        k(    1) = (   0.0000000   0.0000000   0.0000000), wk =   0.0017361
        k(    2) = (   0.0000000   0.0000000   0.0774922), wk =   0.0034722
        k(    3) = (   0.0000000   0.0000000   0.1549843), wk =   0.0034722
        k(    4) = (   0.0000000   0.0000000   0.2324765), wk =   0.0034722
        k(    5) = (   0.0000000   0.0000000  -0.3099687), wk =   0.0017361
        k(    6) = (   0.0000000   0.0962250   0.0000000), wk =   0.0104167
        k(    7) = (   0.0000000   0.0962250   0.0774922), wk =   0.0208333
        k(    8) = (   0.0000000   0.0962250   0.1549843), wk =   0.0208333
        k(    9) = (   0.0000000   0.0962250   0.2324765), wk =   0.0208333
        k(   10) = (   0.0000000   0.0962250  -0.3099687), wk =   0.0104167
        k(   11) = (   0.0000000   0.1924501   0.0000000), wk =   0.0104167
        k(   12) = (   0.0000000   0.1924501   0.0774922), wk =   0.0208333
        k(   13) = (   0.0000000   0.1924501   0.1549843), wk =   0.0208333
        k(   14) = (   0.0000000   0.1924501   0.2324765), wk =   0.0208333
        k(   15) = (   0.0000000   0.1924501  -0.3099687), wk =   0.0104167
        k(   16) = (   0.0000000   0.2886751   0.0000000), wk =   0.0104167
        k(   17) = (   0.0000000   0.2886751   0.0774922), wk =   0.0208333
        k(   18) = (   0.0000000   0.2886751   0.1549843), wk =   0.0208333
        k(   19) = (   0.0000000   0.2886751   0.2324765), wk =   0.0208333
        k(   20) = (   0.0000000   0.2886751  -0.3099687), wk =   0.0104167
        k(   21) = (   0.0000000   0.3849002   0.0000000), wk =   0.0104167
        k(   22) = (   0.0000000   0.3849002   0.0774922), wk =   0.0208333
        k(   23) = (   0.0000000   0.3849002   0.1549843), wk =   0.0208333
        k(   24) = (   0.0000000   0.3849002   0.2324765), wk =   0.0208333
        k(   25) = (   0.0000000   0.3849002  -0.3099687), wk =   0.0104167
        k(   26) = (   0.0000000   0.4811252   0.0000000), wk =   0.0104167
        k(   27) = (   0.0000000   0.4811252   0.0774922), wk =   0.0208333
        k(   28) = (   0.0000000   0.4811252   0.1549843), wk =   0.0208333
        k(   29) = (   0.0000000   0.4811252   0.2324765), wk =   0.0208333
        k(   30) = (   0.0000000   0.4811252  -0.3099687), wk =   0.0104167
        k(   31) = (   0.0000000  -0.5773503   0.0000000), wk =   0.0052083
        k(   32) = (   0.0000000  -0.5773503   0.0774922), wk =   0.0104167
        k(   33) = (   0.0000000  -0.5773503   0.1549843), wk =   0.0104167
        k(   34) = (   0.0000000  -0.5773503   0.2324765), wk =   0.0104167
        k(   35) = (   0.0000000  -0.5773503  -0.3099687), wk =   0.0052083
        k(   36) = (   0.0833333   0.1443376   0.0000000), wk =   0.0104167
        k(   37) = (   0.0833333   0.1443376   0.0774922), wk =   0.0208333
        k(   38) = (   0.0833333   0.1443376   0.1549843), wk =   0.0208333
        k(   39) = (   0.0833333   0.1443376   0.2324765), wk =   0.0208333
        k(   40) = (   0.0833333   0.1443376  -0.3099687), wk =   0.0104167
        k(   41) = (   0.0833333   0.2405626   0.0000000), wk =   0.0208333
        k(   42) = (   0.0833333   0.2405626   0.0774922), wk =   0.0416667
        k(   43) = (   0.0833333   0.2405626   0.1549843), wk =   0.0416667
        k(   44) = (   0.0833333   0.2405626   0.2324765), wk =   0.0416667
        k(   45) = (   0.0833333   0.2405626  -0.3099687), wk =   0.0208333
        k(   46) = (   0.0833333   0.3367877   0.0000000), wk =   0.0208333
        k(   47) = (   0.0833333   0.3367877   0.0774922), wk =   0.0416667
        k(   48) = (   0.0833333   0.3367877   0.1549843), wk =   0.0416667
        k(   49) = (   0.0833333   0.3367877   0.2324765), wk =   0.0416667
        k(   50) = (   0.0833333   0.3367877  -0.3099687), wk =   0.0208333
        k(   51) = (   0.0833333   0.4330127   0.0000000), wk =   0.0208333
        k(   52) = (   0.0833333   0.4330127   0.0774922), wk =   0.0416667
        k(   53) = (   0.0833333   0.4330127   0.1549843), wk =   0.0416667
        k(   54) = (   0.0833333   0.4330127   0.2324765), wk =   0.0416667
        k(   55) = (   0.0833333   0.4330127  -0.3099687), wk =   0.0208333
        k(   56) = (   0.0833333   0.5292377   0.0000000), wk =   0.0208333
        k(   57) = (   0.0833333   0.5292377   0.0774922), wk =   0.0416667
        k(   58) = (   0.0833333   0.5292377   0.1549843), wk =   0.0416667
        k(   59) = (   0.0833333   0.5292377   0.2324765), wk =   0.0416667
        k(   60) = (   0.0833333   0.5292377  -0.3099687), wk =   0.0208333
[...]
[...]
        k(   37) = (   0.0822908   0.1425319   0.0765001), wk =   0.0208333
        k(   38) = (   0.0822908   0.1425319   0.1530002), wk =   0.0208333
        k(   39) = (   0.0822908   0.1425319   0.2295003), wk =   0.0208333
        k(   40) = (   0.0822908   0.1425319  -0.3060005), wk =   0.0104167
        k(   41) = (   0.0822908   0.2375532   0.0000000), wk =   0.0208333
        k(   42) = (   0.0822908   0.2375532   0.0765001), wk =   0.0416667
        k(   43) = (   0.0822908   0.2375532   0.1530002), wk =   0.0416667
        k(   44) = (   0.0822908   0.2375532   0.2295003), wk =   0.0416667
        k(   45) = (   0.0822908   0.2375532  -0.3060005), wk =   0.0208333
        k(   46) = (   0.0822908   0.3325745   0.0000000), wk =   0.0208333
        k(   47) = (   0.0822908   0.3325745   0.0765001), wk =   0.0416667
        k(   48) = (   0.0822908   0.3325745   0.1530002), wk =   0.0416667
        k(   49) = (   0.0822908   0.3325745   0.2295003), wk =   0.0416667
        k(   50) = (   0.0822908   0.3325745  -0.3060005), wk =   0.0208333
        k(   51) = (   0.0822908   0.4275958   0.0000000), wk =   0.0208333
        k(   52) = (   0.0822908   0.4275958   0.0765001), wk =   0.0416667
        k(   53) = (   0.0822908   0.4275958   0.1530002), wk =   0.0416667
        k(   54) = (   0.0822908   0.4275958   0.2295003), wk =   0.0416667
        k(   55) = (   0.0822908   0.4275958  -0.3060005), wk =   0.0208333
        k(   56) = (   0.0822908   0.5226171   0.0000000), wk =   0.0208333
        k(   57) = (   0.0822908   0.5226171   0.0765001), wk =   0.0416667
        k(   58) = (   0.0822908   0.5226171   0.1530002), wk =   0.0416667
        k(   59) = (   0.0822908   0.5226171   0.2295003), wk =   0.0416667
        k(   60) = (   0.0822908   0.5226171  -0.3060005), wk =   0.0208333
[...]
        k(   81) = (   0.2468725   0.4275958   0.0000000), wk =   0.0104167
        k(   82) = (   0.2468725   0.4275958   0.0765001), wk =   0.0208333
        k(   83) = (   0.2468725   0.4275958   0.1530002), wk =   0.0208333
        k(   84) = (   0.2468725   0.4275958   0.2295003), wk =   0.0208333
        k(   85) = (   0.2468725   0.4275958  -0.3060005), wk =   0.0104167
        k(   86) = (   0.2468725   0.5226171   0.0000000), wk =   0.0208333
        k(   87) = (   0.2468725   0.5226171   0.0765001), wk =   0.0416667
        k(   88) = (   0.2468725   0.5226171   0.1530002), wk =   0.0416667
        k(   89) = (   0.2468725   0.5226171   0.2295003), wk =   0.0416667
        k(   90) = (   0.2468725   0.5226171  -0.3060005), wk =   0.0208333
        k(   91) = (   0.3291634   0.5701277   0.0000000), wk =   0.0034722
        k(   92) = (   0.3291634   0.5701277   0.0765001), wk =   0.0069444
        k(   93) = (   0.3291634   0.5701277   0.1530002), wk =   0.0069444
        k(   94) = (   0.3291634   0.5701277   0.2295003), wk =   0.0069444
        k(   95) = (   0.3291634   0.5701277  -0.3060005), wk =   0.0034722

                       cryst. coord.
        k(    1) = (   0.0000000   0.0000000   0.0000000), wk =   0.0017361
        k(    2) = (   0.0000000  -0.0000000   0.1250000), wk =   0.0034722
        k(    3) = (   0.0000000  -0.0000000   0.2500000), wk =   0.0034722
        k(    4) = (   0.0000000  -0.0000000   0.3750000), wk =   0.0034722
        k(    5) = (   0.0000000   0.0000000  -0.5000000), wk =   0.0017361
        k(    6) = (   0.0000000   0.0833333  -0.0000000), wk =   0.0104167
        k(    7) = (   0.0000000   0.0833333   0.1250000), wk =   0.0208333
        k(    8) = (   0.0000000   0.0833333   0.2500000), wk =   0.0208333
        k(    9) = (   0.0000000   0.0833333   0.3750000), wk =   0.0208333
        k(   10) = (   0.0000000   0.0833333  -0.5000000), wk =   0.0104167
        k(   11) = (   0.0000000   0.1666667  -0.0000000), wk =   0.0104167
        k(   12) = (   0.0000000   0.1666667   0.1250000), wk =   0.0208333
        k(   13) = (   0.0000000   0.1666667   0.2500000), wk =   0.0208333
        k(   14) = (   0.0000000   0.1666667   0.3750000), wk =   0.0208333
        k(   15) = (   0.0000000   0.1666667  -0.5000000), wk =   0.0104167
        k(   16) = (   0.0000000   0.2500000  -0.0000000), wk =   0.0104167
        k(   17) = (   0.0000000   0.2500000   0.1250000), wk =   0.0208333
        k(   18) = (   0.0000000   0.2500000   0.2500000), wk =   0.0208333
        k(   19) = (   0.0000000   0.2500000   0.3750000), wk =   0.0208333
        k(   20) = (   0.0000000   0.2500000  -0.5000000), wk =   0.0104167
        k(   21) = (   0.0000000   0.3333333  -0.0000000), wk =   0.0104167
        k(   22) = (   0.0000000   0.3333333   0.1250000), wk =   0.0208333
        k(   23) = (   0.0000000   0.3333333   0.2500000), wk =   0.0208333
        k(   24) = (   0.0000000   0.3333333   0.3750000), wk =   0.0208333
        k(   25) = (   0.0000000   0.3333333  -0.5000000), wk =   0.0104167
        k(   26) = (  -0.0000000   0.4166667   0.0000000), wk =   0.0104167
        k(   27) = (  -0.0000000   0.4166667   0.1250000), wk =   0.0208333
        k(   28) = (  -0.0000000   0.4166667   0.2500000), wk =   0.0208333
        k(   29) = (  -0.0000000   0.4166667   0.3750000), wk =   0.0208333
        k(   30) = (  -0.0000000   0.4166667  -0.5000000), wk =   0.0104167
        k(   31) = (  -0.0000000  -0.5000000   0.0000000), wk =   0.0052083
        k(   32) = (  -0.0000000  -0.5000000   0.1250000), wk =   0.0104167
        k(   33) = (  -0.0000000  -0.5000000   0.2500000), wk =   0.0104167
        k(   34) = (  -0.0000000  -0.5000000   0.3750000), wk =   0.0104167
        k(   35) = (  -0.0000000  -0.5000000  -0.5000000), wk =   0.0052083
        k(   36) = (   0.0833333   0.0833333  -0.0000000), wk =   0.0104167
        k(   37) = (   0.0833333   0.0833333   0.1250000), wk =   0.0208333
        k(   38) = (   0.0833333   0.0833333   0.2500000), wk =   0.0208333
        k(   39) = (   0.0833333   0.0833333   0.3750000), wk =   0.0208333
        k(   40) = (   0.0833333   0.0833333  -0.5000000), wk =   0.0104167
        k(   41) = (   0.0833333   0.1666667   0.0000000), wk =   0.0208333
        k(   42) = (   0.0833333   0.1666667   0.1250000), wk =   0.0416667
        k(   43) = (   0.0833333   0.1666667   0.2500000), wk =   0.0416667
        k(   44) = (   0.0833333   0.1666667   0.3750000), wk =   0.0416667
        k(   45) = (   0.0833333   0.1666667  -0.5000000), wk =   0.0208333
        k(   46) = (   0.0833333   0.2500000   0.0000000), wk =   0.0208333
        k(   47) = (   0.0833333   0.2500000   0.1250000), wk =   0.0416667
        k(   48) = (   0.0833333   0.2500000   0.2500000), wk =   0.0416667
        k(   49) = (   0.0833333   0.2500000   0.3750000), wk =   0.0416667
        k(   50) = (   0.0833333   0.2500000  -0.5000000), wk =   0.0208333
        k(   51) = (   0.0833333   0.3333333   0.0000000), wk =   0.0208333
        k(   52) = (   0.0833333   0.3333333   0.1250000), wk =   0.0416667
        k(   53) = (   0.0833333   0.3333333   0.2500000), wk =   0.0416667
        k(   54) = (   0.0833333   0.3333333   0.3750000), wk =   0.0416667
        k(   55) = (   0.0833333   0.3333333  -0.5000000), wk =   0.0208333
        k(   56) = (   0.0833333   0.4166667  -0.0000000), wk =   0.0208333
        k(   57) = (   0.0833333   0.4166667   0.1250000), wk =   0.0416667
        k(   58) = (   0.0833333   0.4166667   0.2500000), wk =   0.0416667
        k(   59) = (   0.0833333   0.4166667   0.3750000), wk =   0.0416667
        k(   60) = (   0.0833333   0.4166667  -0.5000000), wk =   0.0208333
[...]
        k(   81) = (   0.2500000   0.2500000  -0.0000000), wk =   0.0104167
        k(   82) = (   0.2500000   0.2500000   0.1250000), wk =   0.0208333
        k(   83) = (   0.2500000   0.2500000   0.2500000), wk =   0.0208333
        k(   84) = (   0.2500000   0.2500000   0.3750000), wk =   0.0208333
        k(   85) = (   0.2500000   0.2500000  -0.5000000), wk =   0.0104167
        k(   86) = (   0.2500000   0.3333333  -0.0000000), wk =   0.0208333
        k(   87) = (   0.2500000   0.3333333   0.1250000), wk =   0.0416667
        k(   88) = (   0.2500000   0.3333333   0.2500000), wk =   0.0416667
        k(   89) = (   0.2500000   0.3333333   0.3750000), wk =   0.0416667
        k(   90) = (   0.2500000   0.3333333  -0.5000000), wk =   0.0208333
        k(   91) = (   0.3333333   0.3333333  -0.0000000), wk =   0.0034722
        k(   92) = (   0.3333333   0.3333333   0.1250000), wk =   0.0069444
        k(   93) = (   0.3333333   0.3333333   0.2500000), wk =   0.0069444
        k(   94) = (   0.3333333   0.3333333   0.3750000), wk =   0.0069444
        k(   95) = (   0.3333333   0.3333333  -0.5000000), wk =   0.0034722

     Check: negative core charge=   -0.000003

     Initial potential from superposition of free atoms

     starting charge      51.9997, renormalised to      52.0000
     Starting wfcs are   34 randomized atomic wfcs
     Checking if some PAW data can be deallocated...

     Self-consistent Calculation

[...]

     c_bands:  1 eigenvalues not converged
     ethr =  1.00E-06,  avg # of iterations = 10.3

[...]

     total energy              =   -1006.57113393 Ry
     estimated scf accuracy    <          4.0E-10 Ry

     iteration # 12     ecut=    50.00 Ry     beta= 0.40
     Davidson diagonalization with overlap

     ethr =  7.72E-13,  avg # of iterations =  2.0

     End of self-consistent calculation

[...]

          k =-0.0000 0.4751-0.3060 (  2000 PWs)   bands (ev):

[...]

          k = 0.3292 0.5701-0.3060 (  1992 PWs)   bands (ev):

  -115.1231-115.1231 -69.3208 -69.3208 -69.3179 -69.3179 -69.3179 -69.3179
    -8.7365  -8.7365   2.7386   2.7386   2.9372   2.9372   3.4428   3.4428
     3.7946   3.7946   4.2745   4.2745   4.6265   4.6265   5.6866   5.6866
     7.0854   7.0854  16.0846  16.0846  16.2425  16.2425  16.9527

     occupation numbers
     1.0000   1.0000   1.0000   1.0000   1.0000   1.0000   1.0000   1.0000
     1.0000   1.0000   1.0000   1.0000   1.0000   1.0000   1.0000   1.0000
     1.0000   1.0000   1.0000   1.0000   1.0000   1.0000   1.0000   1.0000
     1.0000   1.0000   0.0000   0.0000   0.0000   0.0000   0.0000

     the Fermi energy is     8.8402 ev

     WARNING: integrated charge=    52.00012941, expected=    52.00000000

!    total energy              =   -1006.57113396 Ry
     estimated scf accuracy    <          7.7E-11 Ry
     smearing contrib. (-TS)   =       0.00000134 Ry
     internal energy E=F+TS    =   -1006.57113530 Ry

     The total energy is F=E-TS. E is the sum of the following terms:
     one-electron contribution =    -814.86741867 Ry
     hartree contribution      =     428.54469864 Ry
     xc contribution           =     -99.45264236 Ry
     ewald contribution        =    -501.76470856 Ry
     one-center paw contrib.   =     -19.03106434 Ry
      -> PAW hartree energy AE =      52.44003268 Ry
      -> PAW hartree energy PS =     -52.19203760 Ry
      -> PAW xc energy AE      =     -33.36132434 Ry
      -> PAW xc energy PS      =      14.08226492 Ry
      -> total E_H with PAW    =     428.79269372 Ry
      -> total E_XC with PAW   =    -118.73170178 Ry

     convergence has been achieved in  12 iterations

     Forces acting on atoms (cartesian axes, Ry/au):

     atom    1 type  2   force =     0.00000000    0.00000000    0.00000444
     atom    2 type  2   force =     0.00000000    0.00000000    0.00000444
     atom    3 type  1   force =    -0.00000000   -0.00000000   -0.00000444
     atom    4 type  1   force =    -0.00000000   -0.00000000   -0.00000444
     The non-local contrib.  to forces
     atom    1 type  2   force =    -0.00000000   -0.00000000   -0.01019953
     atom    2 type  2   force =    -0.00000000    0.00000000   -0.01019953
     atom    3 type  1   force =     0.00000000    0.00000000    0.00553329
     atom    4 type  1   force =     0.00000000    0.00000000    0.00553329
     The ionic contribution  to forces
     atom    1 type  2   force =    -0.00000060    0.00000035    0.09435804
     atom    2 type  2   force =     0.00000060   -0.00000035    0.09435804
     atom    3 type  1   force =    -0.00000052    0.00000030   -0.09435804
     atom    4 type  1   force =     0.00000052   -0.00000030   -0.09435804
     The local contribution  to forces
     atom    1 type  2   force =    -0.00000981    0.00000566   -0.08415827
     atom    2 type  2   force =     0.00002943   -0.00001699   -0.08415888
     atom    3 type  1   force =    -0.00000057    0.00000033    0.08889339
     atom    4 type  1   force =     0.00000172   -0.00000100    0.08889437
     The core correction contribution to forces
     atom    1 type  2   force =     0.00000000    0.00000000    0.00000000
     atom    2 type  2   force =     0.00000000    0.00000000    0.00000000
     atom    3 type  1   force =    -0.00000000    0.00000000   -0.00007806
     atom    4 type  1   force =     0.00000000   -0.00000000   -0.00007806
     The Hubbard contrib.    to forces
     atom    1 type  2   force =     0.00000000    0.00000000    0.00000000
     atom    2 type  2   force =     0.00000000    0.00000000    0.00000000
     atom    3 type  1   force =     0.00000000    0.00000000    0.00000000
     atom    4 type  1   force =     0.00000000    0.00000000    0.00000000
     The SCF correction term to forces
     atom    1 type  2   force =    -0.00000000    0.00000000    0.00000026
     atom    2 type  2   force =     0.00000000   -0.00000000    0.00000026
     atom    3 type  1   force =    -0.00000000    0.00000000    0.00000025
     atom    4 type  1   force =     0.00000000   -0.00000000    0.00000025

     Total force =     0.000009     Total SCF correction =     0.000001

     Computing stress (Cartesian axis) and pressure

          total   stress  (Ry/bohr**3)                   (kbar)     P=        0.72
   0.00000441   0.00000000   0.00000000            0.65        0.00        0.00
   0.00000000   0.00000441   0.00000000            0.00        0.65        0.00
  -0.00000000  -0.00000000   0.00000593           -0.00       -0.00        0.87

     kinetic stress (kbar)  33665.11     -0.00      0.00
                               -0.00  33665.11     -0.00
                                0.00      0.00  33692.69

     local   stress (kbar)  -6810.13     -0.00     -0.00
                               -0.00  -6810.14      0.00
                               -0.00      0.00 -10673.67

     nonloc. stress (kbar)   -713.02     -0.00     -0.00
                               -0.00   -713.02     -0.00
                               -0.00     -0.00   -725.32

     hartree stress (kbar)  62629.61     -0.00      0.00
                               -0.00  62629.61     -0.00
                                0.00     -0.00  64474.63

     exc-cor stress (kbar) -13676.64      0.00     -0.00
                                0.00 -13676.64      0.00
                               -0.00      0.00 -13676.82

     corecor stress (kbar)   -375.96     -0.00      0.00
                               -0.00   -375.96     -0.00
                                0.00     -0.00   -375.99

     ewald   stress (kbar) -74718.31      0.00      0.00
                                0.00 -74718.31     -0.00
                                0.00     -0.00 -72714.65

     hubbard stress (kbar)      0.00      0.00      0.00
                                0.00      0.00      0.00
                                0.00      0.00      0.00

     DFT-D   stress (kbar)      0.00      0.00      0.00
                                0.00      0.00      0.00
                                0.00      0.00      0.00

     XDM     stress (kbar)      0.00      0.00      0.00
                                0.00      0.00      0.00
                                0.00      0.00      0.00

     dft-nl  stress (kbar)      0.00      0.00      0.00
                                0.00      0.00      0.00
                                0.00      0.00      0.00

     TS-vdW  stress (kbar)      0.00      0.00      0.00
                                0.00      0.00      0.00
                                0.00      0.00      0.00

     MDB     stress (kbar)      0.00      0.00      0.00
                                0.00      0.00      0.00
                                0.00      0.00      0.00

     3D-RISM stress (kbar)      0.00      0.00      0.00
                                0.00      0.00      0.00
                                0.00      0.00      0.00

     Writing all to output data dir ./temp_hexag/aiida.save/ :
     XML data file, charge density, pseudopotentials, collected wavefunctions

     General routines

     Parallel routines

     PAW routines

   This run was terminated on:  22:30:59  11Jun2024

   JOB DONE.