     Program PWSCF v.7.3.1 starts on  9Jun2024 at 16:12: 8

     Waiting for input...
     Reading input from standard input

     Current dimensions of program PWSCF are:
     Max number of different atomic species (ntypx) = 10
     Max number of k-points (npk) =  40000
     Max angular momentum in pseudopotentials (lmaxx) =  4
     file O.pbe-n-kjpaw_psl.0.1.UPF: wavefunction(s)  2P renormalized
     Message from routine setup:
     using ibrav=0 with symmetry is DISCOURAGED, use correct ibrav instead

     Subspace diagonalization in iterative solution of the eigenvalue problem:
     a serial algorithm will be used

     Using Slab Decomposition

     bravais-lattice index     =            0
     lattice parameter (alat)  =       6.1177  a.u.
     unit-cell volume          =     319.8518 (a.u.)^3
     number of atoms/cell      =            3
     number of atomic types    =            2
     number of electrons       =        46.00
     number of Kohn-Sham states=           28
     kinetic-energy cutoff     =      50.0000  Ry
     charge density cutoff     =     400.0000  Ry
     scf convergence threshold =      2.0E-08
     mixing beta               =       0.4000
     number of iterations used =            8  plain     mixing
     energy convergence thresh.=      4.0E-05
     force convergence thresh. =      1.0E-04
     press convergence thresh. =      5.0E-01
     Exchange-correlation= SLA  PW   PBE  PBE
                           (   1   4   3   4   0   0   0)
     nstep                     =           50

     celldm(1)=   6.117707  celldm(2)=   0.000000  celldm(3)=   0.000000
     celldm(4)=   0.000000  celldm(5)=   0.000000  celldm(6)=   0.000000

     crystal axes: (cart. coord. in units of alat)
               a(1) = (   1.000000   0.000000   0.000000 )
               a(2) = (  -0.500000   0.866025   0.000000 )
               a(3) = (   0.000000   0.000000   1.613066 )

     reciprocal axes: (cart. coord. in units 2 pi/alat)
               b(1) = (  1.000000  0.577350 -0.000000 )
               b(2) = (  0.000000  1.154701  0.000000 )
               b(3) = (  0.000000 -0.000000  0.619937 )

     PseudoPot. # 1 for O  read from file:
     ../SSSP_1.3.0_PBE_efficiency/O.pbe-n-kjpaw_psl.0.1.UPF
     MD5 check sum: 0234752ac141de4415c5fc33072bef88
     Pseudo is Projector augmented-wave + core cor, Zval =  6.0
     Generated using "atomic" code by A. Dal Corso  v.5.0.99 svn rev. 10869
     Shape of augmentation charge: BESSEL
     Using radial grid of 1095 points,  4 beta functions with:
                l(1) =   0
                l(2) =   0
                l(3) =   1
                l(4) =   1
     Q(r) pseudized with 0 coefficients

     PseudoPot. # 2 for Zn read from file:
     ../SSSP_1.3.0_PBE_efficiency/Zn_pbe_v1.uspp.F.UPF
     MD5 check sum: df62231357ef9e81f77b2b3087fa5675
     Pseudo is Ultrasoft, Zval = 20.0
     Generated by new atomic code, or converted to UPF format
     Using radial grid of  943 points,  6 beta functions with:
                l(1) =   0
                l(2) =   0
                l(3) =   1
                l(4) =   1
                l(5) =   2
                l(6) =   2
     Q(r) pseudized with  8 coefficients,  rinner =    1.100   1.100   1.100
                                                       1.100   1.100

     atomic species   valence    mass     pseudopotential
     O                 6.00    15.99940     O ( 1.00)
     Zn               20.00    65.38000     Zn( 1.00)

      6 Sym. Ops. (no inversion) found

                                    s                        frac. trans.

      isym =  1     identity

 cryst.   s( 1) = (     1          0          0      )
                  (     0          1          0      )
                  (     0          0          1      )

 cart.    s( 1) = (  1.0000000  0.0000000  0.0000000 )
                  (  0.0000000  1.0000000  0.0000000 )
                  (  0.0000000  0.0000000  1.0000000 )

      isym =  2     120 deg rotation - cryst. axis [0,0,1]

[...]

      isym =  4     inv. 180 deg rotation - cart. axis [1,0,0]

[...]

      isym =  5     inv. 180 deg rotation - cryst. axis [0,1,0]

[...]

   Cartesian axes

     site n.     atom                  positions (alat units)
         1        Zn     tau(   1) = (   0.5000000   0.2886751   0.8074875  )
         2        Zn     tau(   2) = (  -0.0000000   0.5773503   0.0009545  )
         3        O      tau(   3) = (   0.5000000   0.2886751   1.4190438  )

   Crystallographic axes

     site n.     atom                  positions (cryst. coord.)
         1        Zn     tau(   1) = (  0.6666667  0.3333333  0.5005917  )
         2        Zn     tau(   2) = (  0.3333333  0.6666667  0.0005917  )
         3        O      tau(   3) = (  0.6666667  0.3333333  0.8797183  )

     number of k points=   131  Marzari-Vanderbilt smearing, width (Ry)=  0.0147
                       cart. coord. in units 2pi/alat
        k(    1) = (   0.0000000   0.0000000   0.0000000), wk =   0.0017361
        k(    2) = (   0.0000000   0.0000000   0.0774922), wk =   0.0034722
        k(    3) = (   0.0000000   0.0000000   0.1549843), wk =   0.0034722
        k(    4) = (   0.0000000   0.0000000   0.2324765), wk =   0.0034722
        k(    5) = (   0.0000000   0.0000000  -0.3099687), wk =   0.0017361
        k(    6) = (   0.0000000   0.0962250   0.0000000), wk =   0.0104167
        k(    7) = (   0.0000000   0.0962250   0.0774922), wk =   0.0104167
        k(    8) = (   0.0000000   0.0962250   0.1549843), wk =   0.0104167
        k(    9) = (   0.0000000   0.0962250   0.2324765), wk =   0.0104167
        k(   10) = (   0.0000000   0.0962250  -0.3099687), wk =   0.0104167
        k(   11) = (   0.0000000   0.1924501   0.0000000), wk =   0.0104167
        k(   12) = (   0.0000000   0.1924501   0.0774922), wk =   0.0104167
        k(   13) = (   0.0000000   0.1924501   0.1549843), wk =   0.0104167
        k(   14) = (   0.0000000   0.1924501   0.2324765), wk =   0.0104167
        k(   15) = (   0.0000000   0.1924501  -0.3099687), wk =   0.0104167
        k(   16) = (   0.0000000   0.2886751   0.0000000), wk =   0.0104167
        k(   17) = (   0.0000000   0.2886751   0.0774922), wk =   0.0104167
        k(   18) = (   0.0000000   0.2886751   0.1549843), wk =   0.0104167
        k(   19) = (   0.0000000   0.2886751   0.2324765), wk =   0.0104167
        k(   20) = (   0.0000000   0.2886751  -0.3099687), wk =   0.0104167
        k(   21) = (   0.0000000   0.3849002   0.0000000), wk =   0.0104167
        k(   22) = (   0.0000000   0.3849002   0.0774922), wk =   0.0104167
        k(   23) = (   0.0000000   0.3849002   0.1549843), wk =   0.0104167
        k(   24) = (   0.0000000   0.3849002   0.2324765), wk =   0.0104167
        k(   25) = (   0.0000000   0.3849002  -0.3099687), wk =   0.0104167
        k(   26) = (   0.0000000   0.4811252   0.0000000), wk =   0.0104167
        k(   27) = (   0.0000000   0.4811252   0.0774922), wk =   0.0104167
        k(   28) = (   0.0000000   0.4811252   0.1549843), wk =   0.0104167
        k(   29) = (   0.0000000   0.4811252   0.2324765), wk =   0.0104167
        k(   30) = (   0.0000000   0.4811252  -0.3099687), wk =   0.0104167
        k(   31) = (   0.0000000  -0.5773503   0.0000000), wk =   0.0052083
        k(   32) = (   0.0000000  -0.5773503   0.0774922), wk =   0.0104167
        k(   33) = (   0.0000000  -0.5773503   0.1549843), wk =   0.0104167
        k(   34) = (   0.0000000  -0.5773503   0.2324765), wk =   0.0104167
        k(   35) = (   0.0000000  -0.5773503  -0.3099687), wk =   0.0052083
        k(   36) = (   0.0833333   0.1443376   0.0000000), wk =   0.0104167
        k(   37) = (   0.0833333   0.1443376   0.0774922), wk =   0.0208333
        k(   38) = (   0.0833333   0.1443376   0.1549843), wk =   0.0208333
        k(   39) = (   0.0833333   0.1443376   0.2324765), wk =   0.0208333
        k(   40) = (   0.0833333   0.1443376  -0.3099687), wk =   0.0104167
        k(   41) = (   0.0833333   0.2405626   0.0000000), wk =   0.0208333
        k(   42) = (   0.0833333   0.2405626   0.0774922), wk =   0.0208333
        k(   43) = (   0.0833333   0.2405626   0.1549843), wk =   0.0208333
        k(   44) = (   0.0833333   0.2405626   0.2324765), wk =   0.0208333
        k(   45) = (   0.0833333   0.2405626  -0.3099687), wk =   0.0208333
        k(   46) = (   0.0833333   0.3367877   0.0000000), wk =   0.0208333
        k(   47) = (   0.0833333   0.3367877   0.0774922), wk =   0.0208333
        k(   48) = (   0.0833333   0.3367877   0.1549843), wk =   0.0208333
        k(   49) = (   0.0833333   0.3367877   0.2324765), wk =   0.0208333
        k(   50) = (   0.0833333   0.3367877  -0.3099687), wk =   0.0208333
        k(   51) = (   0.0833333   0.4330127   0.0000000), wk =   0.0208333
        k(   52) = (   0.0833333   0.4330127   0.0774922), wk =   0.0208333
        k(   53) = (   0.0833333   0.4330127   0.1549843), wk =   0.0208333
        k(   54) = (   0.0833333   0.4330127   0.2324765), wk =   0.0208333
        k(   55) = (   0.0833333   0.4330127  -0.3099687), wk =   0.0208333
        k(   56) = (   0.0833333   0.5292377   0.0000000), wk =   0.0208333
        k(   57) = (   0.0833333   0.5292377   0.0774922), wk =   0.0208333
        k(   58) = (   0.0833333   0.5292377   0.1549843), wk =   0.0208333
        k(   59) = (   0.0833333   0.5292377   0.2324765), wk =   0.0208333
        k(   60) = (   0.0833333   0.5292377  -0.3099687), wk =   0.0208333
[...]
        k(  117) = (  -0.0833333  -0.4330127   0.0774922), wk =   0.0208333
        k(  118) = (  -0.0833333  -0.4330127   0.1549843), wk =   0.0208333
        k(  119) = (  -0.0833333  -0.4330127   0.2324765), wk =   0.0208333
        k(  120) = (  -0.0833333  -0.5292377   0.0774922), wk =   0.0208333
        k(  121) = (  -0.0833333  -0.5292377   0.1549843), wk =   0.0208333
        k(  122) = (  -0.0833333  -0.5292377   0.2324765), wk =   0.0208333
        k(  123) = (  -0.1666667  -0.3849002   0.0774922), wk =   0.0208333
        k(  124) = (  -0.1666667  -0.3849002   0.1549843), wk =   0.0208333
        k(  125) = (  -0.1666667  -0.3849002   0.2324765), wk =   0.0208333
        k(  126) = (  -0.1666667  -0.4811252   0.0774922), wk =   0.0208333
        k(  127) = (  -0.1666667  -0.4811252   0.1549843), wk =   0.0208333
        k(  128) = (  -0.1666667  -0.4811252   0.2324765), wk =   0.0208333
        k(  129) = (  -0.2500000  -0.5292377   0.0774922), wk =   0.0208333
        k(  130) = (  -0.2500000  -0.5292377   0.1549843), wk =   0.0208333
        k(  131) = (  -0.2500000  -0.5292377   0.2324765), wk =   0.0208333

                       cryst. coord.
        k(    1) = (   0.0000000   0.0000000   0.0000000), wk =   0.0017361
        k(    2) = (   0.0000000   0.0000000   0.1250000), wk =   0.0034722
        k(    3) = (   0.0000000   0.0000000   0.2500000), wk =   0.0034722
        k(    4) = (   0.0000000   0.0000000   0.3750000), wk =   0.0034722
        k(    5) = (   0.0000000   0.0000000  -0.5000000), wk =   0.0017361
        k(    6) = (   0.0000000   0.0833333   0.0000000), wk =   0.0104167
[...]
        k(   28) = (  -0.0000000   0.5006614   0.1659060), wk =   0.0104167
        k(   29) = (  -0.0000000   0.5006614   0.2488591), wk =   0.0104167
        k(   30) = (  -0.0000000   0.5006614  -0.3318121), wk =   0.0104167
        k(   31) = (   0.0000000  -0.6007936   0.0000000), wk =   0.0052083
        k(   32) = (   0.0000000  -0.6007936   0.0829530), wk =   0.0104167
        k(   33) = (   0.0000000  -0.6007936   0.1659060), wk =   0.0104167
        k(   34) = (   0.0000000  -0.6007936   0.2488591), wk =   0.0104167
        k(   35) = (   0.0000000  -0.6007936  -0.3318121), wk =   0.0052083
        k(   36) = (   0.0867171   0.1501984  -0.0000000), wk =   0.0104167
        k(   37) = (   0.0867171   0.1501984   0.0829530), wk =   0.0208333
        k(   38) = (   0.0867171   0.1501984   0.1659060), wk =   0.0208333
        k(   39) = (   0.0867171   0.1501984   0.2488591), wk =   0.0208333
        k(   40) = (   0.0867171   0.1501984  -0.3318121), wk =   0.0104167
        k(   41) = (   0.0867171   0.2503307  -0.0000000), wk =   0.0208333
        k(   42) = (   0.0867171   0.2503307   0.0829530), wk =   0.0208333
        k(   43) = (   0.0867171   0.2503307   0.1659060), wk =   0.0208333
        k(   44) = (   0.0867171   0.2503307   0.2488591), wk =   0.0208333
        k(   45) = (   0.0867171   0.2503307  -0.3318121), wk =   0.0208333
        k(   46) = (   0.0867171   0.3504630  -0.0000000), wk =   0.0208333
        k(   47) = (   0.0867171   0.3504630   0.0829530), wk =   0.0208333
        k(   48) = (   0.0867171   0.3504630   0.1659060), wk =   0.0208333
        k(   49) = (   0.0867171   0.3504630   0.2488591), wk =   0.0208333
        k(   50) = (   0.0867171   0.3504630  -0.3318121), wk =   0.0208333
        k(   51) = (   0.0867171   0.4505952  -0.0000000), wk =   0.0208333
        k(   52) = (   0.0867171   0.4505952   0.0829530), wk =   0.0208333
        k(   53) = (   0.0867171   0.4505952   0.1659060), wk =   0.0208333
        k(   54) = (   0.0867171   0.4505952   0.2488591), wk =   0.0208333
        k(   55) = (   0.0867171   0.4505952  -0.3318121), wk =   0.0208333
        k(   56) = (   0.0867171   0.5507275  -0.0000000), wk =   0.0208333
        k(   57) = (   0.0867171   0.5507275   0.0829530), wk =   0.0208333
        k(   58) = (   0.0867171   0.5507275   0.1659060), wk =   0.0208333
        k(   59) = (   0.0867171   0.5507275   0.2488591), wk =   0.0208333
        k(   60) = (   0.0867171   0.5507275  -0.3318121), wk =   0.0208333
[...]
        k(  117) = (  -0.0867171  -0.4505952   0.0829530), wk =   0.0208333
        k(  118) = (  -0.0867171  -0.4505952   0.1659060), wk =   0.0208333
        k(  119) = (  -0.0867171  -0.4505952   0.2488591), wk =   0.0208333
        k(  120) = (  -0.0867171  -0.5507275   0.0829530), wk =   0.0208333
        k(  121) = (  -0.0867171  -0.5507275   0.1659060), wk =   0.0208333
        k(  122) = (  -0.0867171  -0.5507275   0.2488591), wk =   0.0208333
        k(  123) = (  -0.1734342  -0.4005291   0.0829530), wk =   0.0208333
        k(  124) = (  -0.1734342  -0.4005291   0.1659060), wk =   0.0208333
        k(  125) = (  -0.1734342  -0.4005291   0.2488591), wk =   0.0208333
        k(  126) = (  -0.1734342  -0.5006614   0.0829530), wk =   0.0208333
        k(  127) = (  -0.1734342  -0.5006614   0.1659060), wk =   0.0208333
        k(  128) = (  -0.1734342  -0.5006614   0.2488591), wk =   0.0208333
        k(  129) = (  -0.2601513  -0.5507275   0.0829530), wk =   0.0208333
        k(  130) = (  -0.2601513  -0.5507275   0.1659060), wk =   0.0208333
        k(  131) = (  -0.2601513  -0.5507275   0.2488591), wk =   0.0208333

                       cryst. coord.
        k(    1) = (   0.0000000   0.0000000   0.0000000), wk =   0.0017361
        k(    2) = (   0.0000000   0.0000000   0.1250000), wk =   0.0034722
        k(    3) = (   0.0000000   0.0000000   0.2500000), wk =   0.0034722
        k(    4) = (   0.0000000   0.0000000   0.3750000), wk =   0.0034722
        k(    5) = (  -0.0000000  -0.0000000  -0.5000000), wk =   0.0017361
        k(    6) = (  -0.0000000   0.0833333  -0.0000000), wk =   0.0104167
        k(    7) = (  -0.0000000   0.0833333   0.1250000), wk =   0.0104167
        k(    8) = (  -0.0000000   0.0833333   0.2500000), wk =   0.0104167
        k(    9) = (  -0.0000000   0.0833333   0.3750000), wk =   0.0104167
        k(   10) = (  -0.0000000   0.0833333  -0.5000000), wk =   0.0104167
        k(   11) = (  -0.0000000   0.1666667  -0.0000000), wk =   0.0104167
        k(   12) = (  -0.0000000   0.1666667   0.1250000), wk =   0.0104167
        k(   13) = (  -0.0000000   0.1666667   0.2500000), wk =   0.0104167
        k(   14) = (  -0.0000000   0.1666667   0.3750000), wk =   0.0104167
        k(   15) = (  -0.0000000   0.1666667  -0.5000000), wk =   0.0104167
        k(   16) = (   0.0000000   0.2500000  -0.0000000), wk =   0.0104167
        k(   17) = (  -0.0000000   0.2500000   0.1250000), wk =   0.0104167
        k(   18) = (  -0.0000000   0.2500000   0.2500000), wk =   0.0104167
        k(   19) = (  -0.0000000   0.2500000   0.3750000), wk =   0.0104167
        k(   20) = (   0.0000000   0.2500000  -0.5000000), wk =   0.0104167
        k(   21) = (  -0.0000000   0.3333333  -0.0000000), wk =   0.0104167
        k(   22) = (  -0.0000000   0.3333333   0.1250000), wk =   0.0104167
        k(   23) = (  -0.0000000   0.3333333   0.2500000), wk =   0.0104167
        k(   24) = (  -0.0000000   0.3333333   0.3750000), wk =   0.0104167
        k(   25) = (  -0.0000000   0.3333333  -0.5000000), wk =   0.0104167
        k(   26) = (  -0.0000000   0.4166667   0.0000000), wk =   0.0104167
        k(   27) = (  -0.0000000   0.4166667   0.1250000), wk =   0.0104167
        k(   28) = (  -0.0000000   0.4166667   0.2500000), wk =   0.0104167
        k(   29) = (  -0.0000000   0.4166667   0.3750000), wk =   0.0104167
        k(   30) = (  -0.0000000   0.4166667  -0.5000000), wk =   0.0104167
        k(   31) = (  -0.0000000  -0.5000000   0.0000000), wk =   0.0052083
        k(   32) = (  -0.0000000  -0.5000000   0.1250000), wk =   0.0104167
        k(   33) = (  -0.0000000  -0.5000000   0.2500000), wk =   0.0104167
        k(   34) = (  -0.0000000  -0.5000000   0.3750000), wk =   0.0104167
        k(   35) = (   0.0000000  -0.5000000  -0.5000000), wk =   0.0052083
        k(   36) = (   0.0833333   0.0833333  -0.0000000), wk =   0.0104167
        k(   37) = (   0.0833333   0.0833333   0.1250000), wk =   0.0208333
        k(   38) = (   0.0833333   0.0833333   0.2500000), wk =   0.0208333
        k(   39) = (   0.0833333   0.0833333   0.3750000), wk =   0.0208333
        k(   40) = (   0.0833333   0.0833333  -0.5000000), wk =   0.0104167
        k(   41) = (   0.0833333   0.1666667   0.0000000), wk =   0.0208333
        k(   42) = (   0.0833333   0.1666667   0.1250000), wk =   0.0208333
        k(   43) = (   0.0833333   0.1666667   0.2500000), wk =   0.0208333
        k(   44) = (   0.0833333   0.1666667   0.3750000), wk =   0.0208333
        k(   45) = (   0.0833333   0.1666667  -0.5000000), wk =   0.0208333
        k(   46) = (   0.0833333   0.2500000  -0.0000000), wk =   0.0208333
        k(   47) = (   0.0833333   0.2500000   0.1250000), wk =   0.0208333
        k(   48) = (   0.0833333   0.2500000   0.2500000), wk =   0.0208333
        k(   49) = (   0.0833333   0.2500000   0.3750000), wk =   0.0208333
        k(   50) = (   0.0833333   0.2500000  -0.5000000), wk =   0.0208333
        k(   51) = (   0.0833333   0.3333333   0.0000000), wk =   0.0208333
        k(   52) = (   0.0833333   0.3333333   0.1250000), wk =   0.0208333
        k(   53) = (   0.0833333   0.3333333   0.2500000), wk =   0.0208333
        k(   54) = (   0.0833333   0.3333333   0.3750000), wk =   0.0208333
        k(   55) = (   0.0833333   0.3333333  -0.5000000), wk =   0.0208333
        k(   56) = (   0.0833333   0.4166667   0.0000000), wk =   0.0208333
        k(   57) = (   0.0833333   0.4166667   0.1250000), wk =   0.0208333
        k(   58) = (   0.0833333   0.4166667   0.2500000), wk =   0.0208333
        k(   59) = (   0.0833333   0.4166667   0.3750000), wk =   0.0208333
        k(   60) = (   0.0833333   0.4166667  -0.5000000), wk =   0.0208333
[...]
        k(  117) = (  -0.0833333  -0.3333333   0.1250000), wk =   0.0208333
        k(  118) = (  -0.0833333  -0.3333333   0.2500000), wk =   0.0208333
        k(  119) = (  -0.0833333  -0.3333333   0.3750000), wk =   0.0208333
        k(  120) = (  -0.0833333  -0.4166667   0.1250000), wk =   0.0208333
        k(  121) = (  -0.0833333  -0.4166667   0.2500000), wk =   0.0208333
        k(  122) = (  -0.0833333  -0.4166667   0.3750000), wk =   0.0208333
        k(  123) = (  -0.1666667  -0.2500000   0.1250000), wk =   0.0208333
        k(  124) = (  -0.1666667  -0.2500000   0.2500000), wk =   0.0208333
        k(  125) = (  -0.1666667  -0.2500000   0.3750000), wk =   0.0208333
        k(  126) = (  -0.1666667  -0.3333333   0.1250000), wk =   0.0208333
        k(  127) = (  -0.1666667  -0.3333333   0.2500000), wk =   0.0208333
        k(  128) = (  -0.1666667  -0.3333333   0.3750000), wk =   0.0208333
        k(  129) = (  -0.2500000  -0.3333333   0.1250000), wk =   0.0208333
        k(  130) = (  -0.2500000  -0.3333333   0.2500000), wk =   0.0208333
        k(  131) = (  -0.2500000  -0.3333333   0.3750000), wk =   0.0208333

     Check: negative core charge=   -0.000002

     Initial potential from superposition of free atoms

     starting charge      45.9997, renormalised to      46.0000
     Starting wfcs are   30 randomized atomic wfcs
     Checking if some PAW data can be deallocated...

     Self-consistent Calculation

[...]

     total energy              =    -964.80229228 Ry
     estimated scf accuracy    <          2.2E-10 Ry

     iteration # 12     ecut=    50.00 Ry     beta= 0.40
     Davidson diagonalization with overlap

     ethr =  4.78E-13,  avg # of iterations =  2.0

     End of self-consistent calculation

[...]

          k = 0.0000-0.5007 0.2489 (  1635 PWs)   bands (ev):

[...]

          k =-0.2602-0.5507 0.2489 (  1637 PWs)   bands (ev):

  -115.2912-114.7078 -69.4768 -69.4760 -69.4104 -68.9006 -68.8774 -68.8765
    -7.7504   2.9157   3.2560   3.4514   3.5960   3.7619   3.8677   4.1976
     4.3133   4.4790   4.6668   5.6628   6.6536   7.1587  10.1189  12.1343
    13.4186  16.4390  17.6344  19.4416

     occupation numbers
     1.0000   1.0000   1.0000   1.0000   1.0000   1.0000   1.0000   1.0000
     1.0000   1.0000   1.0000   1.0000   1.0000   1.0000   1.0000   1.0000
     1.0000   1.0000   1.0000   1.0000   1.0000   1.0000   1.0009   0.0000
     0.0000   0.0000   0.0000   0.0000

     the Fermi energy is    10.7429 ev

!    total energy              =    -964.80229228 Ry
     estimated scf accuracy    <          1.0E-11 Ry
     smearing contrib. (-TS)   =       0.00004645 Ry
     internal energy E=F+TS    =    -964.80233873 Ry

     The total energy is F=E-TS. E is the sum of the following terms:
     one-electron contribution =    -785.28121474 Ry
     hartree contribution      =     409.44324551 Ry
     xc contribution           =     -91.85440002 Ry
     ewald contribution        =    -487.59065901 Ry
     one-center paw contrib.   =      -9.51931047 Ry
      -> PAW hartree energy AE =      26.26972801 Ry
      -> PAW hartree energy PS =     -26.14744997 Ry
      -> PAW xc energy AE      =     -16.69229098 Ry
      -> PAW xc energy PS      =       7.05070246 Ry
      -> total E_H with PAW    =     409.56552355 Ry
      -> total E_XC with PAW   =    -101.49598853 Ry

     convergence has been achieved in  12 iterations

     Forces acting on atoms (cartesian axes, Ry/au):

     atom    1 type  2   force =    -0.00000000   -0.00000000   -0.00001656
     atom    2 type  2   force =     0.00000000    0.00000000    0.00001030
     atom    3 type  1   force =     0.00000000   -0.00000000    0.00000625
     The non-local contrib.  to forces
     atom    1 type  2   force =     0.00000000   -0.00000000   -0.26484129
     atom    2 type  2   force =     0.00000000    0.00000000    0.29135098
     atom    3 type  1   force =    -0.00000000    0.00000000   -0.04116773
     The ionic contribution  to forces
     atom    1 type  2   force =    -0.00000017    0.00000010   11.60560484
     atom    2 type  2   force =     0.00000054   -0.00000031   -6.74267262
     atom    3 type  1   force =    -0.00000037    0.00000021   -4.86293222
     The local contribution  to forces
     atom    1 type  2   force =    -0.00001870    0.00001080  -11.34078911
     atom    2 type  2   force =     0.00001845   -0.00001065    6.45133664
     atom    3 type  1   force =    -0.00000114    0.00000066    4.90336589
     The core correction contribution to forces
     atom    1 type  2   force =     0.00000000    0.00000000    0.00000000
     atom    2 type  2   force =     0.00000000    0.00000000    0.00000000
     atom    3 type  1   force =    -0.00000000    0.00000000    0.00074337
     The Hubbard contrib.    to forces
     atom    1 type  2   force =     0.00000000    0.00000000    0.00000000
     atom    2 type  2   force =     0.00000000    0.00000000    0.00000000
     atom    3 type  1   force =     0.00000000    0.00000000    0.00000000
     The SCF correction term to forces
     atom    1 type  2   force =    -0.00000000    0.00000000    0.00000760
     atom    2 type  2   force =     0.00000000   -0.00000000   -0.00000610
     atom    3 type  1   force =    -0.00000000    0.00000000   -0.00000447

     Total force =     0.000020     Total SCF correction =     0.000011
     SCF correction compared to forces is large: reduce conv_thr to get better values

     Computing stress (Cartesian axis) and pressure

          total   stress  (Ry/bohr**3)                   (kbar)     P=       -3.78
  -0.00002406  -0.00000000  -0.00000000           -3.54       -0.00       -0.00
  -0.00000000  -0.00002406   0.00000000           -0.00       -3.54        0.00
  -0.00000000   0.00000000  -0.00002887           -0.00        0.00       -4.25

     kinetic stress (kbar)  34655.57      0.00      0.00
                                0.00  34655.57     -0.00
                               -0.00      0.00  34381.26

     local   stress (kbar)   1277.79     -0.00     -0.00
                               -0.00   1277.79      0.00
                               -0.00      0.00 -11825.70

     nonloc. stress (kbar)  -1968.89      0.00     -0.00
                                0.00  -1968.89      0.00
                               -0.00      0.00  -1868.09

     hartree stress (kbar)  71161.40      0.00      0.00
                                0.00  71161.40     -0.00
                                0.00     -0.00  75959.68

     exc-cor stress (kbar) -15433.61      0.00      0.00
                                0.00 -15433.61     -0.00
                                0.00     -0.00 -15419.02

     corecor stress (kbar)   -226.77     -0.00     -0.00
                               -0.00   -226.77      0.00
                               -0.00      0.00   -226.02

     ewald   stress (kbar) -89469.04      0.00      0.00
                                0.00 -89469.04     -0.00
                                0.00     -0.00 -81006.36

     hubbard stress (kbar)      0.00      0.00      0.00
                                0.00      0.00      0.00
                                0.00      0.00      0.00

     DFT-D   stress (kbar)      0.00      0.00      0.00
                                0.00      0.00      0.00
                                0.00      0.00      0.00

     XDM     stress (kbar)      0.00      0.00      0.00
                                0.00      0.00      0.00
                                0.00      0.00      0.00

     dft-nl  stress (kbar)      0.00      0.00      0.00
                                0.00      0.00      0.00
                                0.00      0.00      0.00

     TS-vdW  stress (kbar)      0.00      0.00      0.00
                                0.00      0.00      0.00
                                0.00      0.00      0.00

     MDB     stress (kbar)      0.00      0.00      0.00
                                0.00      0.00      0.00
                                0.00      0.00      0.00

     3D-RISM stress (kbar)      0.00      0.00      0.00
                                0.00      0.00      0.00
                                0.00      0.00      0.00

     Writing all to output data dir ./temp_hexag/aiida.save/ :
     XML data file, charge density, pseudopotentials, collected wavefunctions

     General routines

     Parallel routines

     PAW routines

   This run was terminated on:  17: 8: 6   9Jun2024

   JOB DONE.