     Program PWSCF v.7.3.1 starts on 14Jun2024 at 21:14: 2

     Waiting for input...
     Reading input from standard input
Warning: card H      1.00794 H.PBE-RRKJUS_PSL.1.0.0.UPF ignored

     Current dimensions of program PWSCF are:
     Max number of different atomic species (ntypx) = 10
     Max number of k-points (npk) =  40000
     Max angular momentum in pseudopotentials (lmaxx) =  4
     file O.pbe-n-kjpaw_psl.0.1.UPF: wavefunction(s)  2P renormalized
     Message from routine setup:
     using ibrav=0 with symmetry is DISCOURAGED, use correct ibrav instead

     Subspace diagonalization in iterative solution of the eigenvalue problem:
     a serial algorithm will be used

     Using Slab Decomposition

     bravais-lattice index     =            0
     lattice parameter (alat)  =       6.1177  a.u.
     unit-cell volume          =    3198.5179 (a.u.)^3
     number of atoms/cell      =            4
     number of atomic types    =            2
     number of electrons       =        52.00
     number of Kohn-Sham states=           31
     kinetic-energy cutoff     =      50.0000  Ry
     charge density cutoff     =     400.0000  Ry
     scf convergence threshold =      2.0E-08
     mixing beta               =       0.4000
     number of iterations used =            8  plain     mixing
     Exchange-correlation= SLA  PW   PBE  PBE
                           (   1   4   3   4   0   0   0)

     celldm(1)=   6.117707  celldm(2)=   0.000000  celldm(3)=   0.000000
     celldm(4)=   0.000000  celldm(5)=   0.000000  celldm(6)=   0.000000

     crystal axes: (cart. coord. in units of alat)
               a(1) = (   1.000000   0.000000   0.000000 )
               a(2) = (  -0.500000   0.866025   0.000000 )
               a(3) = (   0.000000   0.000000  16.130661 )

     reciprocal axes: (cart. coord. in units 2 pi/alat)
               b(1) = (  1.000000  0.577350 -0.000000 )
               b(2) = (  0.000000  1.154701  0.000000 )
               b(3) = (  0.000000 -0.000000  0.061994 )

     PseudoPot. # 1 for O  read from file:
     ../SSSP_1.3.0_PBE_efficiency/O.pbe-n-kjpaw_psl.0.1.UPF
     MD5 check sum: 0234752ac141de4415c5fc33072bef88
     Pseudo is Projector augmented-wave + core cor, Zval =  6.0
     Generated using "atomic" code by A. Dal Corso  v.5.0.99 svn rev. 10869
     Shape of augmentation charge: BESSEL
     Using radial grid of 1095 points,  4 beta functions with:
                l(1) =   0
                l(2) =   0
                l(3) =   1
                l(4) =   1
     Q(r) pseudized with 0 coefficients

     PseudoPot. # 2 for Zn read from file:
     ../SSSP_1.3.0_PBE_efficiency/Zn_pbe_v1.uspp.F.UPF
     MD5 check sum: df62231357ef9e81f77b2b3087fa5675
     Pseudo is Ultrasoft, Zval = 20.0
     Generated by new atomic code, or converted to UPF format
     Using radial grid of  943 points,  6 beta functions with:
                l(1) =   0
                l(2) =   0
                l(3) =   1
                l(4) =   1
                l(5) =   2
                l(6) =   2
     Q(r) pseudized with  8 coefficients,  rinner =    1.100   1.100   1.100
                                                       1.100   1.100

     atomic species   valence    mass     pseudopotential
     O                 6.00    15.99940     O ( 1.00)
     Zn               20.00    65.38000     Zn( 1.00)

      6 Sym. Ops. (no inversion) found

                                    s                        frac. trans.

      isym =  1     identity

 cryst.   s( 1) = (     1          0          0      )
                  (     0          1          0      )
                  (     0          0          1      )

 cart.    s( 1) = (  1.0000000  0.0000000  0.0000000 )
                  (  0.0000000  1.0000000  0.0000000 )
                  (  0.0000000  0.0000000  1.0000000 )

      isym =  2     120 deg rotation - cryst. axis [0,0,1]

[...]

      isym =  3     120 deg rotation - cryst. axis [0,0,-1]

[...]

      isym =  4     inv. 180 deg rotation - cart. axis [1,0,0]

[...]

      isym =  5     inv. 180 deg rotation - cryst. axis [0,1,0]

[...]

      isym =  6     inv. 180 deg rotation - cryst. axis [1,1,0]

 cryst.   s( 6) = (     0         -1          0      )
                  (    -1          0          0      )
                  (     0          0          1      )

 cart.    s( 6) = (  0.5000000 -0.8660254  0.0000000 )
                  ( -0.8660254 -0.5000000  0.0000000 )
                  (  0.0000000  0.0000000  1.0000000 )

   Cartesian axes

     site n.     atom                  positions (alat units)
         1        Zn     tau(   1) = (   0.5000000   0.2886751   0.8074875  )
         2        Zn     tau(   2) = (  -0.0000000   0.5773503   0.0009545  )
         3        O      tau(   3) = (   0.5000000   0.2886751   1.4190438  )
         4        O      tau(   4) = (  -0.0000000   0.5773503   0.6125107  )

   Crystallographic axes

     site n.     atom                  positions (cryst. coord.)
         1        Zn     tau(   1) = (  0.6666667  0.3333333  0.0500592  )
         2        Zn     tau(   2) = (  0.3333333  0.6666667  0.0000592  )
         3        O      tau(   3) = (  0.6666667  0.3333333  0.0879718  )
         4        O      tau(   4) = (  0.3333333  0.6666667  0.0379718  )

     number of k points=    19  Marzari-Vanderbilt smearing, width (Ry)=  0.0147
                       cart. coord. in units 2pi/alat
        k(    1) = (   0.0000000   0.0000000   0.0000000), wk =   0.0138889
        k(    2) = (   0.0000000   0.0962250   0.0000000), wk =   0.0833333
        k(    3) = (   0.0000000   0.1924501   0.0000000), wk =   0.0833333
        k(    4) = (   0.0000000   0.2886751   0.0000000), wk =   0.0833333
        k(    5) = (   0.0000000   0.3849002   0.0000000), wk =   0.0833333
        k(    6) = (   0.0000000   0.4811252   0.0000000), wk =   0.0833333
        k(    7) = (   0.0000000  -0.5773503   0.0000000), wk =   0.0416667
        k(    8) = (   0.0833333   0.1443376   0.0000000), wk =   0.0833333
        k(    9) = (   0.0833333   0.2405626   0.0000000), wk =   0.1666667
        k(   10) = (   0.0833333   0.3367877   0.0000000), wk =   0.1666667
        k(   11) = (   0.0833333   0.4330127   0.0000000), wk =   0.1666667
        k(   12) = (   0.0833333   0.5292377   0.0000000), wk =   0.1666667
        k(   13) = (   0.1666667   0.2886751   0.0000000), wk =   0.0833333
        k(   14) = (   0.1666667   0.3849002   0.0000000), wk =   0.1666667
        k(   15) = (   0.1666667   0.4811252   0.0000000), wk =   0.1666667
        k(   16) = (   0.1666667   0.5773503   0.0000000), wk =   0.0833333
        k(   17) = (   0.2500000   0.4330127   0.0000000), wk =   0.0833333
        k(   18) = (   0.2500000   0.5292377   0.0000000), wk =   0.1666667
        k(   19) = (   0.3333333   0.5773503   0.0000000), wk =   0.0277778

                       cryst. coord.
        k(    1) = (   0.0000000   0.0000000   0.0000000), wk =   0.0138889
        k(    2) = (   0.0000000   0.0833333   0.0000000), wk =   0.0833333
        k(    3) = (   0.0000000   0.1666667   0.0000000), wk =   0.0833333
        k(    4) = (   0.0000000   0.2500000   0.0000000), wk =   0.0833333
        k(    5) = (   0.0000000   0.3333333   0.0000000), wk =   0.0833333
        k(    6) = (   0.0000000   0.4166667   0.0000000), wk =   0.0833333
        k(    7) = (   0.0000000  -0.5000000   0.0000000), wk =   0.0416667
        k(    8) = (   0.0833333   0.0833333   0.0000000), wk =   0.0833333
        k(    9) = (   0.0833333   0.1666667   0.0000000), wk =   0.1666667
        k(   10) = (   0.0833333   0.2500000   0.0000000), wk =   0.1666667
        k(   11) = (   0.0833333   0.3333333   0.0000000), wk =   0.1666667
        k(   12) = (   0.0833333   0.4166667   0.0000000), wk =   0.1666667
        k(   13) = (   0.1666667   0.1666667   0.0000000), wk =   0.0833333
        k(   14) = (   0.1666667   0.2500000   0.0000000), wk =   0.1666667
        k(   15) = (   0.1666667   0.3333333   0.0000000), wk =   0.1666667
        k(   16) = (   0.1666667   0.4166667   0.0000000), wk =   0.0833333
        k(   17) = (   0.2500000   0.2500000   0.0000000), wk =   0.0833333
        k(   18) = (   0.2500000   0.3333333   0.0000000), wk =   0.1666667
        k(   19) = (   0.3333333   0.3333333   0.0000000), wk =   0.0277778

     Initial potential from superposition of free atoms

     starting charge      51.9997, renormalised to      52.0000

     negative rho (up, down):  3.746E-04 0.000E+00
     Starting wfcs are   34 randomized atomic wfcs
     Checking if some PAW data can be deallocated...

     Self-consistent Calculation

     iteration #  1     ecut=    50.00 Ry     beta= 0.40
     Davidson diagonalization with overlap

     ethr =  1.00E-02,  avg # of iterations =  4.6

     negative rho (up, down):  2.514E-04 0.000E+00

     WARNING: integrated charge=    52.00066546, expected=    52.00000000

     total energy              =   -1002.17310971 Ry
     estimated scf accuracy    <       7.07336460 Ry

[...]

     WARNING: integrated charge=    51.99998672, expected=    52.00000000

[...]

     total energy              =   -1006.14134680 Ry
     estimated scf accuracy    <       0.00000004 Ry

     iteration # 18     ecut=    50.00 Ry     beta= 0.40
     Davidson diagonalization with overlap

     ethr =  7.14E-11,  avg # of iterations =  2.0

[...]

     End of self-consistent calculation

          k = 0.0000 0.0000 0.0000 ( 18895 PWs)   bands (ev):

  -131.1058-129.3953 -85.3130 -85.3130 -85.1974 -83.5858 -83.5858 -83.5722
   -23.9749 -21.2627 -12.4430 -12.1297 -12.1297 -12.0537 -12.0537 -11.9089
   -11.4512 -11.4512 -10.3694 -10.3694  -9.9920  -8.3136  -6.5916  -6.5916
    -6.0435  -5.3022  -5.3022  -3.4354  -1.1708  -0.1357   0.4256

     occupation numbers
     1.0000   1.0000   1.0000   1.0000   1.0000   1.0000   1.0000   1.0000
     1.0000   1.0000   1.0000   1.0000   1.0000   1.0000   1.0000   1.0000
     1.0000   1.0000   1.0000   1.0000   1.0000   1.0000   1.0000   1.0000
     1.0231   0.0046   0.0046   0.0000   0.0000   0.0000   0.0000

[...]

          k = 0.3333 0.5774 0.0000 ( 19131 PWs)   bands (ev):

  -131.1057-129.3952 -85.3144 -85.3144 -85.1972 -83.5875 -83.5873 -83.5720
   -23.4585 -20.9817 -12.2591 -12.2415 -12.2276 -12.0680 -12.0678 -11.2235
   -10.7519 -10.7151 -10.4575 -10.1368 -10.0634  -8.9690  -8.3973  -6.1992
    -6.1292  -6.1136  -3.7603  -3.0145  -3.0080   2.4485   2.8867

     occupation numbers
     1.0000   1.0000   1.0000   1.0000   1.0000   1.0000   1.0000   1.0000
     1.0000   1.0000   1.0000   1.0000   1.0000   1.0000   1.0000   1.0000
     1.0000   1.0000   1.0000   1.0000   1.0000   1.0000   1.0000   1.0014
     1.0058   1.0077   0.0000   0.0000   0.0000   0.0000   0.0000

     the Fermi energy is    -5.5958 ev

!    total energy              =   -1006.14134681 Ry
     estimated scf accuracy    <          9.6E-09 Ry
     smearing contrib. (-TS)   =       0.00053874 Ry
     internal energy E=F+TS    =   -1006.14188555 Ry

     The total energy is F=E-TS. E is the sum of the following terms:
     one-electron contribution =  -14669.41896324 Ry
     hartree contribution      =    7327.58517689 Ry
     xc contribution           =     -98.83118186 Ry
     ewald contribution        =    6453.59460184 Ry
     one-center paw contrib.   =     -19.07151917 Ry
      -> PAW hartree energy AE =      48.94494606 Ry
      -> PAW hartree energy PS =     -48.72634224 Ry
      -> PAW xc energy AE      =     -32.83305459 Ry
      -> PAW xc energy PS      =      13.54293161 Ry
      -> total E_H with PAW    =    7327.80378070 Ry
      -> total E_XC with PAW   =    -118.12130485 Ry

     convergence has been achieved in  18 iterations

     negative rho (up, down):  4.056E-04 0.000E+00

     Forces acting on atoms (cartesian axes, Ry/au):

     atom    1 type  2   force =     0.00000000    0.00000000    0.07631383
     atom    2 type  2   force =     0.00000000    0.00000000    0.00730778
     atom    3 type  1   force =     0.00000000    0.00000000   -0.03760940
     atom    4 type  1   force =     0.00000000    0.00000000   -0.04601221
     The non-local contrib.  to forces
     atom    1 type  2   force =     0.00000000    0.00000000   -0.64238429
     atom    2 type  2   force =     0.00000000   -0.00000000   -0.53268029
     atom    3 type  1   force =     0.00000000    0.00000000   -1.16878026
     atom    4 type  1   force =     0.00000000    0.00000000   -0.24414494
     The ionic contribution  to forces
     atom    1 type  2   force =    -0.00000057    0.00000033  116.52502390
     atom    2 type  2   force =     0.00000005   -0.00000003 -223.08096282
     atom    3 type  1   force =    -0.00000000    0.00000000   97.25609218
     atom    4 type  1   force =     0.00000053   -0.00000030    9.29984674
     The local contribution  to forces
     atom    1 type  2   force =    -0.00001936    0.00001118 -115.80672271
     atom    2 type  2   force =     0.00001961   -0.00001132  223.62064862
     atom    3 type  1   force =    -0.00000139    0.00000080  -96.13811164
     atom    4 type  1   force =     0.00000113   -0.00000065   -9.10458731
     The core correction contribution to forces
     atom    1 type  2   force =     0.00000000    0.00000000    0.00000000
     atom    2 type  2   force =     0.00000000    0.00000000    0.00000000
     atom    3 type  1   force =    -0.00000000    0.00000000    0.01319678
     atom    4 type  1   force =     0.00000000   -0.00000000    0.00281030
     The Hubbard contrib.    to forces
     atom    1 type  2   force =     0.00000000    0.00000000    0.00000000
     atom    2 type  2   force =     0.00000000    0.00000000    0.00000000
     atom    3 type  1   force =     0.00000000    0.00000000    0.00000000
     atom    4 type  1   force =     0.00000000    0.00000000    0.00000000
     The SCF correction term to forces
     atom    1 type  2   force =     0.00000000   -0.00000000    0.00050988
     atom    2 type  2   force =    -0.00000000    0.00000000    0.00041521
     atom    3 type  1   force =     0.00000000   -0.00000000    0.00010647
     atom    4 type  1   force =    -0.00000000    0.00000000    0.00017595

     Total force =     0.096999     Total SCF correction =     0.000689

     Computing stress (Cartesian axis) and pressure

     negative rho (up, down):  4.056E-04 0.000E+00
          total   stress  (Ry/bohr**3)                   (kbar)     P=       -5.00
  -0.00003022   0.00000000   0.00000000           -4.44        0.00        0.00
   0.00000000  -0.00003022   0.00000000            0.00       -4.44        0.00
   0.00000000   0.00000000  -0.00004158            0.00        0.00       -6.12

     kinetic stress (kbar)   3457.61      0.00      0.00
                                0.00   3457.61     -0.00
                                0.00     -0.00   3501.23

     local   stress (kbar)-636296.07     -0.00      0.00
                               -0.00-636296.07     -0.00
                                0.00     -0.00 632875.80

     nonloc. stress (kbar)    -65.53      0.00      0.00
                                0.00    -65.53     -0.00
                                0.00     -0.00    -49.65

     hartree stress (kbar) 323211.67      0.00     -0.00
                                0.00 323211.67     -0.00
                               -0.00     -0.00-309415.70

     exc-cor stress (kbar)  -1412.70      0.00     -0.00
                                0.00  -1412.70      0.00
                               -0.00      0.00  -1410.99

     corecor stress (kbar)    -38.92     -0.00      0.00
                               -0.00    -38.92     -0.00
                                0.00     -0.00    -39.21

     ewald   stress (kbar) 311139.49      0.00     -0.00
                                0.00 311139.49      0.00
                               -0.00      0.00-325467.60

     hubbard stress (kbar)      0.00      0.00      0.00
                                0.00      0.00      0.00
                                0.00      0.00      0.00

     DFT-D   stress (kbar)      0.00      0.00      0.00
                                0.00      0.00      0.00
                                0.00      0.00      0.00

     XDM     stress (kbar)      0.00      0.00      0.00
                                0.00      0.00      0.00
                                0.00      0.00      0.00

     dft-nl  stress (kbar)      0.00      0.00      0.00
                                0.00      0.00      0.00
                                0.00      0.00      0.00

     TS-vdW  stress (kbar)      0.00      0.00      0.00
                                0.00      0.00      0.00
                                0.00      0.00      0.00

     MDB     stress (kbar)      0.00      0.00      0.00
                                0.00      0.00      0.00
                                0.00      0.00      0.00

     3D-RISM stress (kbar)      0.00      0.00      0.00
                                0.00      0.00      0.00
                                0.00      0.00      0.00

     Writing all to output data dir ./temp_hexag/aiida.save/ :
     XML data file, charge density, pseudopotentials, collected wavefunctions

     General routines

     Parallel routines

     PAW routines

   This run was terminated on:  21:24:54  14Jun2024

   JOB DONE.