     Program PWSCF v.7.3.1 starts on 14Jun2024 at 20:11:18

     Waiting for input...
     Reading input from standard input

     Current dimensions of program PWSCF are:
     Max number of different atomic species (ntypx) = 10
     Max number of k-points (npk) =  40000
     Max angular momentum in pseudopotentials (lmaxx) =  4
     file O.pbe-n-kjpaw_psl.0.1.UPF: wavefunction(s)  2P renormalized
     Message from routine setup:
     using ibrav=0 with symmetry is DISCOURAGED, use correct ibrav instead

     Subspace diagonalization in iterative solution of the eigenvalue problem:
     a serial algorithm will be used

     Using Slab Decomposition

     bravais-lattice index     =            0
     lattice parameter (alat)  =       6.1177  a.u.
     unit-cell volume          =    3198.5179 (a.u.)^3
     number of atoms/cell      =            5
     number of atomic types    =            3
     number of electrons       =        53.00
     number of Kohn-Sham states=           32
     kinetic-energy cutoff     =      50.0000  Ry
     charge density cutoff     =     400.0000  Ry
     scf convergence threshold =      2.0E-08
     mixing beta               =       0.4000
     number of iterations used =            8  plain     mixing
     Exchange-correlation= PBE
                           (   1   4   3   4   0   0   0)

     celldm(1)=   6.117707  celldm(2)=   0.000000  celldm(3)=   0.000000
     celldm(4)=   0.000000  celldm(5)=   0.000000  celldm(6)=   0.000000

     crystal axes: (cart. coord. in units of alat)
               a(1) = (   1.000000   0.000000   0.000000 )
               a(2) = (  -0.500000   0.866025   0.000000 )
               a(3) = (   0.000000   0.000000  16.130661 )

     reciprocal axes: (cart. coord. in units 2 pi/alat)
               b(1) = (  1.000000  0.577350 -0.000000 )
               b(2) = (  0.000000  1.154701  0.000000 )
               b(3) = (  0.000000 -0.000000  0.061994 )

     PseudoPot. # 1 for O  read from file:
     ../SSSP_1.3.0_PBE_efficiency/O.pbe-n-kjpaw_psl.0.1.UPF
     MD5 check sum: 0234752ac141de4415c5fc33072bef88
     Pseudo is Projector augmented-wave + core cor, Zval =  6.0
     Generated using "atomic" code by A. Dal Corso  v.5.0.99 svn rev. 10869
     Shape of augmentation charge: BESSEL
     Using radial grid of 1095 points,  4 beta functions with:
                l(1) =   0
                l(2) =   0
                l(3) =   1
                l(4) =   1
     Q(r) pseudized with 0 coefficients

     PseudoPot. # 2 for Zn read from file:
     ../SSSP_1.3.0_PBE_efficiency/Zn_pbe_v1.uspp.F.UPF
     MD5 check sum: df62231357ef9e81f77b2b3087fa5675
     Pseudo is Ultrasoft, Zval = 20.0
     Generated by new atomic code, or converted to UPF format
     Using radial grid of  943 points,  6 beta functions with:
                l(1) =   0
                l(2) =   0
                l(3) =   1
                l(4) =   1
                l(5) =   2
                l(6) =   2
     Q(r) pseudized with  8 coefficients,  rinner =    1.100   1.100   1.100
                                                       1.100   1.100

     PseudoPot. # 3 for H  read from file:
     ../SSSP_1.3.0_PBE_efficiency/H.pbe-rrkjus_psl.1.0.0.UPF
     MD5 check sum: f52b6d4d1c606e5624b1dc7b2218f220
     Pseudo is Ultrasoft, Zval =  1.0
     Generated using "atomic" code by A. Dal Corso  v.5.1
     Using radial grid of  929 points,  2 beta functions with:
                l(1) =   0
                l(2) =   0
     Q(r) pseudized with 0 coefficients

     atomic species   valence    mass     pseudopotential
     O                 6.00    15.99940     O ( 1.00)
     Zn               20.00    65.38000     Zn( 1.00)
     H                 1.00     1.00794     H ( 1.00)

      6 Sym. Ops. (no inversion) found

                                    s                        frac. trans.

      isym =  1     identity

 cryst.   s( 1) = (     1          0          0      )
                  (     0          1          0      )
                  (     0          0          1      )

 cart.    s( 1) = (  1.0000000  0.0000000  0.0000000 )
                  (  0.0000000  1.0000000  0.0000000 )
                  (  0.0000000  0.0000000  1.0000000 )

      isym =  2     120 deg rotation - cryst. axis [0,0,1]

[...]

      isym =  3     120 deg rotation - cryst. axis [0,0,-1]

[...]

      isym =  4     inv. 180 deg rotation - cart. axis [1,0,0]

[...]

      isym =  5     inv. 180 deg rotation - cryst. axis [0,1,0]

[...]

      isym =  6     inv. 180 deg rotation - cryst. axis [1,1,0]

 cryst.   s( 6) = (     0         -1          0      )
                  (    -1          0          0      )
                  (     0          0          1      )

 cart.    s( 6) = (  0.5000000 -0.8660254  0.0000000 )
                  ( -0.8660254 -0.5000000  0.0000000 )
                  (  0.0000000  0.0000000  1.0000000 )

   Cartesian axes

     site n.     atom                  positions (alat units)
         1        Zn     tau(   1) = (   0.5000000   0.2886751   0.8074875  )
         2        Zn     tau(   2) = (  -0.0000000   0.5773503   0.0009545  )
         3        O      tau(   3) = (   0.5000000   0.2886751   1.4190438  )
         4        O      tau(   4) = (  -0.0000000   0.5773503   0.6125107  )
         5        H      tau(   5) = (   0.5000000   0.2886751   1.6937194  )

   Crystallographic axes

     site n.     atom                  positions (cryst. coord.)
         1        Zn     tau(   1) = (  0.6666667  0.3333333  0.0500592  )
         2        Zn     tau(   2) = (  0.3333333  0.6666667  0.0000592  )
         3        O      tau(   3) = (  0.6666667  0.3333333  0.0879718  )
         4        O      tau(   4) = (  0.3333333  0.6666667  0.0379718  )
         5        H      tau(   5) = (  0.6666667  0.3333333  0.1050000  )

     number of k points=    19  Marzari-Vanderbilt smearing, width (Ry)=  0.0147
                       cart. coord. in units 2pi/alat
        k(    1) = (   0.0000000   0.0000000   0.0000000), wk =   0.0138889
        k(    2) = (   0.0000000   0.0962250   0.0000000), wk =   0.0833333
        k(    3) = (   0.0000000   0.1924501   0.0000000), wk =   0.0833333
        k(    4) = (   0.0000000   0.2886751   0.0000000), wk =   0.0833333
        k(    5) = (   0.0000000   0.3849002   0.0000000), wk =   0.0833333
        k(    6) = (   0.0000000   0.4811252   0.0000000), wk =   0.0833333
        k(    7) = (   0.0000000  -0.5773503   0.0000000), wk =   0.0416667
        k(    8) = (   0.0833333   0.1443376   0.0000000), wk =   0.0833333
        k(    9) = (   0.0833333   0.2405626   0.0000000), wk =   0.1666667
        k(   10) = (   0.0833333   0.3367877   0.0000000), wk =   0.1666667
        k(   11) = (   0.0833333   0.4330127   0.0000000), wk =   0.1666667
        k(   12) = (   0.0833333   0.5292377   0.0000000), wk =   0.1666667
        k(   13) = (   0.1666667   0.2886751   0.0000000), wk =   0.0833333
        k(   14) = (   0.1666667   0.3849002   0.0000000), wk =   0.1666667
        k(   15) = (   0.1666667   0.4811252   0.0000000), wk =   0.1666667
        k(   16) = (   0.1666667   0.5773503   0.0000000), wk =   0.0833333
        k(   17) = (   0.2500000   0.4330127   0.0000000), wk =   0.0833333
        k(   18) = (   0.2500000   0.5292377   0.0000000), wk =   0.1666667
        k(   19) = (   0.3333333   0.5773503   0.0000000), wk =   0.0277778

                       cryst. coord.
        k(    1) = (   0.0000000   0.0000000   0.0000000), wk =   0.0138889
        k(    2) = (   0.0000000   0.0833333   0.0000000), wk =   0.0833333
        k(    3) = (   0.0000000   0.1666667   0.0000000), wk =   0.0833333
        k(    4) = (   0.0000000   0.2500000   0.0000000), wk =   0.0833333
        k(    5) = (   0.0000000   0.3333333   0.0000000), wk =   0.0833333
        k(    6) = (   0.0000000   0.4166667   0.0000000), wk =   0.0833333
        k(    7) = (   0.0000000  -0.5000000   0.0000000), wk =   0.0416667
        k(    8) = (   0.0833333   0.0833333   0.0000000), wk =   0.0833333
        k(    9) = (   0.0833333   0.1666667   0.0000000), wk =   0.1666667
        k(   10) = (   0.0833333   0.2500000   0.0000000), wk =   0.1666667
        k(   11) = (   0.0833333   0.3333333   0.0000000), wk =   0.1666667
        k(   12) = (   0.0833333   0.4166667   0.0000000), wk =   0.1666667
        k(   13) = (   0.1666667   0.1666667   0.0000000), wk =   0.0833333
        k(   14) = (   0.1666667   0.2500000   0.0000000), wk =   0.1666667
        k(   15) = (   0.1666667   0.3333333   0.0000000), wk =   0.1666667
        k(   16) = (   0.1666667   0.4166667   0.0000000), wk =   0.0833333
        k(   17) = (   0.2500000   0.2500000   0.0000000), wk =   0.0833333
        k(   18) = (   0.2500000   0.3333333   0.0000000), wk =   0.1666667
        k(   19) = (   0.3333333   0.3333333   0.0000000), wk =   0.0277778

     Initial potential from superposition of free atoms

     starting charge      52.9997, renormalised to      53.0000

     negative rho (up, down):  3.509E-04 0.000E+00
     Starting wfcs are   35 randomized atomic wfcs
     Checking if some PAW data can be deallocated...

     Self-consistent Calculation

     iteration #  1     ecut=    50.00 Ry     beta= 0.40
     Davidson diagonalization with overlap

     ethr =  1.00E-02,  avg # of iterations =  5.4

     negative rho (up, down):  2.015E-04 0.000E+00

     total energy              =   -1006.71612444 Ry
     estimated scf accuracy    <       2.05440192 Ry

[...]

     c_bands:  1 eigenvalues not converged
     ethr =  3.30E-05,  avg # of iterations =  7.9

[...]

     total energy              =   -1007.50696396 Ry
     estimated scf accuracy    <       0.00000270 Ry

     iteration # 17     ecut=    50.00 Ry     beta= 0.40
     Davidson diagonalization with overlap

     ethr =  2.62E-09,  avg # of iterations =  1.0

[...]

     End of self-consistent calculation

          k = 0.0000 0.0000 0.0000 ( 18895 PWs)   bands (ev):

  -128.9743-127.5231 -83.1805 -83.1805 -83.0697 -81.7211 -81.7173 -81.7173
   -22.0656 -21.4015 -10.3995 -10.1779 -10.0127 -10.0127  -9.9938  -9.9938
    -9.8009  -9.5091  -9.5091  -8.5190  -8.5190  -7.4064  -5.2783  -4.6751
    -4.6751  -3.2996  -3.2996  -1.7711   0.5170   0.8621   1.1223   1.2112

     occupation numbers
     1.0000   1.0000   1.0000   1.0000   1.0000   1.0000   1.0000   1.0000
     1.0000   1.0000   1.0000   1.0000   1.0000   1.0000   1.0000   1.0000
     1.0000   1.0000   1.0000   1.0000   1.0000   1.0000   1.0000   1.0000
     1.0000   0.1312   0.1312   0.0000   0.0000   0.0000   0.0000   0.0000

[...]

          k = 0.3333 0.5774 0.0000 ( 19131 PWs)   bands (ev):

  -128.9742-127.5230 -83.1818 -83.1818 -83.0696 -81.7209 -81.7190 -81.7188
   -21.5347 -21.1823 -10.1932 -10.1860 -10.1706  -9.9392  -9.9366  -9.8592
    -9.2931  -8.8560  -8.6988  -8.6085  -8.1961  -7.1189  -7.0673  -6.4633
    -4.3374  -4.2749  -1.6461  -0.9482  -0.9086   3.9858   4.7626   5.2640

     occupation numbers
     1.0000   1.0000   1.0000   1.0000   1.0000   1.0000   1.0000   1.0000
     1.0000   1.0000   1.0000   1.0000   1.0000   1.0000   1.0000   1.0000
     1.0000   1.0000   1.0000   1.0000   1.0000   1.0000   1.0000   1.0000
     1.0000   1.0000   0.0000   0.0000   0.0000   0.0000   0.0000   0.0000

     the Fermi energy is    -3.4029 ev

!    total energy              =   -1007.50696400 Ry
     estimated scf accuracy    <       0.00000001 Ry
     smearing contrib. (-TS)   =      -0.00031826 Ry
     internal energy E=F+TS    =   -1007.50664574 Ry

     The total energy is F=E-TS. E is the sum of the following terms:
     one-electron contribution =  -15090.39204447 Ry
     hartree contribution      =    7541.90051151 Ry
     xc contribution           =     -99.92555120 Ry
     ewald contribution        =    6659.93395645 Ry
     one-center paw contrib.   =     -19.02351804 Ry
      -> PAW hartree energy AE =      53.72476385 Ry
      -> PAW hartree energy PS =     -53.46574451 Ry
      -> PAW xc energy AE      =     -33.57194064 Ry
      -> PAW xc energy PS      =      14.28940327 Ry
      -> total E_H with PAW    =    7542.15953085 Ry
      -> total E_XC with PAW   =    -119.20808857 Ry

     convergence has been achieved in  17 iterations

     negative rho (up, down):  3.849E-04 0.000E+00

     Forces acting on atoms (cartesian axes, Ry/au):

     atom    1 type  2   force =     0.00000000    0.00000000    0.06467156
     atom    2 type  2   force =     0.00000000    0.00000000   -0.00292418
     atom    3 type  1   force =     0.00000000    0.00000000   -0.23773859
     atom    4 type  1   force =     0.00000000    0.00000000   -0.01761016
     atom    5 type  3   force =     0.00000000   -0.00000000    0.19360138
     The non-local contrib.  to forces
     atom    1 type  2   force =     0.00000000   -0.00000000   -0.08543210
     atom    2 type  2   force =     0.00000000    0.00000000   -0.41114894
     atom    3 type  1   force =     0.00000000   -0.00000000    1.17932832
     atom    4 type  1   force =     0.00000000    0.00000000   -0.07626184
     atom    5 type  3   force =     0.00000000    0.00000000   -0.14504240
     The ionic contribution  to forces
     atom    1 type  2   force =    -0.00000057    0.00000033  109.54711169
     atom    2 type  2   force =     0.00000005   -0.00000003 -229.20751882
     atom    3 type  1   force =    -0.00000000    0.00000000   92.17582502
     atom    4 type  1   force =     0.00000053   -0.00000030    7.28817906
     atom    5 type  3   force =    -0.00000000    0.00000000   20.19640305
     The local contribution  to forces
     atom    1 type  2   force =    -0.00001937    0.00001118 -109.39648327
     atom    2 type  2   force =     0.00001961   -0.00001132  229.61622781
     atom    3 type  1   force =    -0.00000143    0.00000082  -93.58370982
     atom    4 type  1   force =     0.00000113   -0.00000065   -7.23013259
     atom    5 type  3   force =    -0.00000012    0.00000007  -19.85791453
     The core correction contribution to forces
     atom    1 type  2   force =     0.00000000    0.00000000    0.00000000
     atom    2 type  2   force =     0.00000000    0.00000000    0.00000000
     atom    3 type  1   force =    -0.00000000    0.00000000   -0.00921544
     atom    4 type  1   force =     0.00000000   -0.00000000    0.00065757
     atom    5 type  3   force =     0.00000000    0.00000000    0.00000000
     The Hubbard contrib.    to forces
     atom    1 type  2   force =     0.00000000    0.00000000    0.00000000
     atom    2 type  2   force =     0.00000000    0.00000000    0.00000000
     atom    3 type  1   force =     0.00000000    0.00000000    0.00000000
     atom    4 type  1   force =     0.00000000    0.00000000    0.00000000
     atom    5 type  3   force =     0.00000000    0.00000000    0.00000000
     The SCF correction term to forces
     atom    1 type  2   force =    -0.00000000    0.00000000   -0.00067124
     atom    2 type  2   force =     0.00000000   -0.00000000   -0.00063071
     atom    3 type  1   force =    -0.00000000    0.00000000   -0.00011314
     atom    4 type  1   force =     0.00000000   -0.00000000   -0.00019884
     atom    5 type  3   force =    -0.00000000    0.00000000    0.00000878

     Total force =     0.313851     Total SCF correction =     0.000949

     Computing stress (Cartesian axis) and pressure

     negative rho (up, down):  3.849E-04 0.000E+00
          total   stress  (Ry/bohr**3)                   (kbar)     P=        1.34
  -0.00001439   0.00000000   0.00000000           -2.12        0.00        0.00
   0.00000000  -0.00001439   0.00000000            0.00       -2.12        0.00
   0.00000000   0.00000000   0.00005619            0.00        0.00        8.27

     kinetic stress (kbar)   3562.89      0.00      0.00
                                0.00   3562.89      0.00
                                0.00      0.00   3466.58

     local   stress (kbar)-655481.21     -0.00      0.00
                               -0.00-655481.21     -0.00
                                0.00     -0.00 651831.64

     nonloc. stress (kbar)    -76.62      0.00      0.00
                                0.00    -76.62      0.00
                                0.00      0.00    -68.80

     hartree stress (kbar) 332981.30      0.00      0.00
                                0.00 332981.30     -0.00
                                0.00     -0.00-319098.24

     exc-cor stress (kbar)  -1428.73      0.00     -0.00
                                0.00  -1428.73      0.00
                               -0.00      0.00  -1426.31

     corecor stress (kbar)    -39.16     -0.00     -0.00
                               -0.00    -39.16      0.00
                               -0.00      0.00    -39.06

     ewald   stress (kbar) 320479.42      0.00     -0.00
                                0.00 320479.42      0.00
                               -0.00      0.00-334657.55

     hubbard stress (kbar)      0.00      0.00      0.00
                                0.00      0.00      0.00
                                0.00      0.00      0.00

     DFT-D   stress (kbar)      0.00      0.00      0.00
                                0.00      0.00      0.00
                                0.00      0.00      0.00

     XDM     stress (kbar)      0.00      0.00      0.00
                                0.00      0.00      0.00
                                0.00      0.00      0.00

     dft-nl  stress (kbar)      0.00      0.00      0.00
                                0.00      0.00      0.00
                                0.00      0.00      0.00

     TS-vdW  stress (kbar)      0.00      0.00      0.00
                                0.00      0.00      0.00
                                0.00      0.00      0.00

     MDB     stress (kbar)      0.00      0.00      0.00
                                0.00      0.00      0.00
                                0.00      0.00      0.00

     3D-RISM stress (kbar)      0.00      0.00      0.00
                                0.00      0.00      0.00
                                0.00      0.00      0.00

     Writing all to output data dir ./temp_hexag/aiida.save/ :
     XML data file, charge density, pseudopotentials, collected wavefunctions

     General routines

     Parallel routines

     PAW routines

   This run was terminated on:  20:20:40  14Jun2024

   JOB DONE.