     Program PWSCF v.7.3.1 starts on 14Jun2024 at 19:52:32

     Waiting for input...
     Reading input from standard input

     Current dimensions of program PWSCF are:
     Max number of different atomic species (ntypx) = 10
     Max number of k-points (npk) =  40000
     Max angular momentum in pseudopotentials (lmaxx) =  4
     file O.pbe-n-kjpaw_psl.0.1.UPF: wavefunction(s)  2P renormalized
     Message from routine setup:
     using ibrav=0 with symmetry is DISCOURAGED, use correct ibrav instead

     Subspace diagonalization in iterative solution of the eigenvalue problem:
     a serial algorithm will be used

     Using Slab Decomposition

     bravais-lattice index     =            0
     lattice parameter (alat)  =       6.1177  a.u.
     unit-cell volume          =    3198.5179 (a.u.)^3
     number of atoms/cell      =            5
     number of atomic types    =            3
     number of electrons       =        53.00
     number of Kohn-Sham states=           32
     kinetic-energy cutoff     =      50.0000  Ry
     charge density cutoff     =     400.0000  Ry
     scf convergence threshold =      2.0E-08
     mixing beta               =       0.4000
     number of iterations used =            8  plain     mixing
     Exchange-correlation= PBE
                           (   1   4   3   4   0   0   0)

     celldm(1)=   6.117707  celldm(2)=   0.000000  celldm(3)=   0.000000
     celldm(4)=   0.000000  celldm(5)=   0.000000  celldm(6)=   0.000000

     crystal axes: (cart. coord. in units of alat)
               a(1) = (   1.000000   0.000000   0.000000 )
               a(2) = (  -0.500000   0.866025   0.000000 )
               a(3) = (   0.000000   0.000000  16.130661 )

     reciprocal axes: (cart. coord. in units 2 pi/alat)
               b(1) = (  1.000000  0.577350 -0.000000 )
               b(2) = (  0.000000  1.154701  0.000000 )
               b(3) = (  0.000000 -0.000000  0.061994 )

     PseudoPot. # 1 for O  read from file:
     ../SSSP_1.3.0_PBE_efficiency/O.pbe-n-kjpaw_psl.0.1.UPF
     MD5 check sum: 0234752ac141de4415c5fc33072bef88
     Pseudo is Projector augmented-wave + core cor, Zval =  6.0
     Generated using "atomic" code by A. Dal Corso  v.5.0.99 svn rev. 10869
     Shape of augmentation charge: BESSEL
     Using radial grid of 1095 points,  4 beta functions with:
                l(1) =   0
                l(2) =   0
                l(3) =   1
                l(4) =   1
     Q(r) pseudized with 0 coefficients

     PseudoPot. # 2 for Zn read from file:
     ../SSSP_1.3.0_PBE_efficiency/Zn_pbe_v1.uspp.F.UPF
     MD5 check sum: df62231357ef9e81f77b2b3087fa5675
     Pseudo is Ultrasoft, Zval = 20.0
     Generated by new atomic code, or converted to UPF format
     Using radial grid of  943 points,  6 beta functions with:
                l(1) =   0
                l(2) =   0
                l(3) =   1
                l(4) =   1
                l(5) =   2
                l(6) =   2
     Q(r) pseudized with  8 coefficients,  rinner =    1.100   1.100   1.100
                                                       1.100   1.100

     PseudoPot. # 3 for H  read from file:
     ../SSSP_1.3.0_PBE_efficiency/H.pbe-rrkjus_psl.1.0.0.UPF
     MD5 check sum: f52b6d4d1c606e5624b1dc7b2218f220
     Pseudo is Ultrasoft, Zval =  1.0
     Generated using "atomic" code by A. Dal Corso  v.5.1
     Using radial grid of  929 points,  2 beta functions with:
                l(1) =   0
                l(2) =   0
     Q(r) pseudized with 0 coefficients

     atomic species   valence    mass     pseudopotential
     O                 6.00    15.99940     O ( 1.00)
     Zn               20.00    65.38000     Zn( 1.00)
     H                 1.00     1.00794     H ( 1.00)

      6 Sym. Ops. (no inversion) found

                                    s                        frac. trans.

      isym =  1     identity

 cryst.   s( 1) = (     1          0          0      )
                  (     0          1          0      )
                  (     0          0          1      )

 cart.    s( 1) = (  1.0000000  0.0000000  0.0000000 )
                  (  0.0000000  1.0000000  0.0000000 )
                  (  0.0000000  0.0000000  1.0000000 )

      isym =  2     120 deg rotation - cryst. axis [0,0,1]

[...]

      isym =  3     120 deg rotation - cryst. axis [0,0,-1]

[...]

      isym =  4     inv. 180 deg rotation - cart. axis [1,0,0]

[...]

      isym =  5     inv. 180 deg rotation - cryst. axis [0,1,0]

[...]

      isym =  6     inv. 180 deg rotation - cryst. axis [1,1,0]

 cryst.   s( 6) = (     0         -1          0      )
                  (    -1          0          0      )
                  (     0          0          1      )

 cart.    s( 6) = (  0.5000000 -0.8660254  0.0000000 )
                  ( -0.8660254 -0.5000000  0.0000000 )
                  (  0.0000000  0.0000000  1.0000000 )

   Cartesian axes

     site n.     atom                  positions (alat units)
         1        Zn     tau(   1) = (   0.5000000   0.2886751   0.8074875  )
         2        Zn     tau(   2) = (  -0.0000000   0.5773503   0.0009545  )
         3        O      tau(   3) = (   0.5000000   0.2886751   1.4190438  )
         4        O      tau(   4) = (  -0.0000000   0.5773503   0.6125107  )
         5        H      tau(   5) = (   0.5000000   0.2886751   1.8550261  )

   Crystallographic axes

     site n.     atom                  positions (cryst. coord.)
         1        Zn     tau(   1) = (  0.6666667  0.3333333  0.0500592  )
         2        Zn     tau(   2) = (  0.3333333  0.6666667  0.0000592  )
         3        O      tau(   3) = (  0.6666667  0.3333333  0.0879718  )
         4        O      tau(   4) = (  0.3333333  0.6666667  0.0379718  )
         5        H      tau(   5) = (  0.6666667  0.3333333  0.1150000  )

     number of k points=    19  Marzari-Vanderbilt smearing, width (Ry)=  0.0147
                       cart. coord. in units 2pi/alat
        k(    1) = (   0.0000000   0.0000000   0.0000000), wk =   0.0138889
        k(    2) = (   0.0000000   0.0962250   0.0000000), wk =   0.0833333
        k(    3) = (   0.0000000   0.1924501   0.0000000), wk =   0.0833333
        k(    4) = (   0.0000000   0.2886751   0.0000000), wk =   0.0833333
        k(    5) = (   0.0000000   0.3849002   0.0000000), wk =   0.0833333
        k(    6) = (   0.0000000   0.4811252   0.0000000), wk =   0.0833333
        k(    7) = (   0.0000000  -0.5773503   0.0000000), wk =   0.0416667
        k(    8) = (   0.0833333   0.1443376   0.0000000), wk =   0.0833333
        k(    9) = (   0.0833333   0.2405626   0.0000000), wk =   0.1666667
        k(   10) = (   0.0833333   0.3367877   0.0000000), wk =   0.1666667
        k(   11) = (   0.0833333   0.4330127   0.0000000), wk =   0.1666667
        k(   12) = (   0.0833333   0.5292377   0.0000000), wk =   0.1666667
        k(   13) = (   0.1666667   0.2886751   0.0000000), wk =   0.0833333
        k(   14) = (   0.1666667   0.3849002   0.0000000), wk =   0.1666667
        k(   15) = (   0.1666667   0.4811252   0.0000000), wk =   0.1666667
        k(   16) = (   0.1666667   0.5773503   0.0000000), wk =   0.0833333
        k(   17) = (   0.2500000   0.4330127   0.0000000), wk =   0.0833333
        k(   18) = (   0.2500000   0.5292377   0.0000000), wk =   0.1666667
        k(   19) = (   0.3333333   0.5773503   0.0000000), wk =   0.0277778

                       cryst. coord.
        k(    1) = (   0.0000000   0.0000000   0.0000000), wk =   0.0138889
        k(    2) = (   0.0000000   0.0833333   0.0000000), wk =   0.0833333
        k(    3) = (   0.0000000   0.1666667   0.0000000), wk =   0.0833333
        k(    4) = (   0.0000000   0.2500000   0.0000000), wk =   0.0833333
        k(    5) = (   0.0000000   0.3333333   0.0000000), wk =   0.0833333
        k(    6) = (   0.0000000   0.4166667   0.0000000), wk =   0.0833333
        k(    7) = (   0.0000000  -0.5000000   0.0000000), wk =   0.0416667
        k(    8) = (   0.0833333   0.0833333   0.0000000), wk =   0.0833333
        k(    9) = (   0.0833333   0.1666667   0.0000000), wk =   0.1666667
        k(   10) = (   0.0833333   0.2500000   0.0000000), wk =   0.1666667
        k(   11) = (   0.0833333   0.3333333   0.0000000), wk =   0.1666667
        k(   12) = (   0.0833333   0.4166667   0.0000000), wk =   0.1666667
        k(   13) = (   0.1666667   0.1666667   0.0000000), wk =   0.0833333
        k(   14) = (   0.1666667   0.2500000   0.0000000), wk =   0.1666667
        k(   15) = (   0.1666667   0.3333333   0.0000000), wk =   0.1666667
        k(   16) = (   0.1666667   0.4166667   0.0000000), wk =   0.0833333
        k(   17) = (   0.2500000   0.2500000   0.0000000), wk =   0.0833333
        k(   18) = (   0.2500000   0.3333333   0.0000000), wk =   0.1666667
        k(   19) = (   0.3333333   0.3333333   0.0000000), wk =   0.0277778

     Initial potential from superposition of free atoms

     starting charge      52.9997, renormalised to      53.0000

     negative rho (up, down):  3.407E-04 0.000E+00
     Starting wfcs are   35 randomized atomic wfcs
     Checking if some PAW data can be deallocated...

     Self-consistent Calculation

     iteration #  1     ecut=    50.00 Ry     beta= 0.40
     Davidson diagonalization with overlap

     ethr =  1.00E-02,  avg # of iterations =  4.6

     negative rho (up, down):  1.923E-04 0.000E+00

     total energy              =   -1006.51508468 Ry
     estimated scf accuracy    <       2.04768667 Ry

[...]

     total energy              =   -1007.36196971 Ry
     estimated scf accuracy    <       0.00000397 Ry

     iteration # 15     ecut=    50.00 Ry     beta= 0.40
     Davidson diagonalization with overlap

     ethr =  7.48E-09,  avg # of iterations =  1.0

[...]

     End of self-consistent calculation

          k = 0.0000 0.0000 0.0000 ( 18895 PWs)   bands (ev):

  -128.5282-127.4101 -82.7322 -82.7322 -82.6286 -81.6336 -81.5881 -81.5881
   -21.7917 -19.2970 -10.0613  -9.7125  -9.7125  -9.5631  -9.5481  -9.5481
    -9.1912  -9.1912  -8.6649  -8.3981  -8.3981  -6.9609  -5.0616  -4.4457
    -4.4457  -2.8306  -2.8306  -2.1853  -0.7754   0.8368   1.0401   1.1394

     occupation numbers
     1.0000   1.0000   1.0000   1.0000   1.0000   1.0000   1.0000   1.0000
     1.0000   1.0000   1.0000   1.0000   1.0000   1.0000   1.0000   1.0000
     1.0000   1.0000   1.0000   1.0000   1.0000   1.0000   1.0000   1.0000
     1.0000   0.1156   0.1156   0.0000   0.0000   0.0000   0.0000   0.0000

[...]

          k = 0.3333 0.5774 0.0000 ( 19131 PWs)   bands (ev):

  -128.5281-127.4100 -82.7335 -82.7335 -82.6284 -81.6334 -81.5899 -81.5897
   -21.2735 -18.9983  -9.8391  -9.7904  -9.7241  -9.4892  -9.4874  -9.0393
    -8.8994  -8.6689  -8.4599  -8.2605  -8.0442  -6.8536  -6.3302  -6.1940
    -3.8621  -3.8065  -1.2075  -0.5769  -0.4788   0.3161   4.7203   4.9795

     occupation numbers
     1.0000   1.0000   1.0000   1.0000   1.0000   1.0000   1.0000   1.0000
     1.0000   1.0000   1.0000   1.0000   1.0000   1.0000   1.0000   1.0000
     1.0000   1.0000   1.0000   1.0000   1.0000   1.0000   1.0000   1.0000
     1.0000   1.0000   0.0000   0.0000   0.0000   0.0000   0.0000   0.0000

     the Fermi energy is    -2.9433 ev

!    total energy              =   -1007.36196979 Ry
     estimated scf accuracy    <          9.1E-09 Ry
     smearing contrib. (-TS)   =      -0.00046121 Ry
     internal energy E=F+TS    =   -1007.36150858 Ry

     The total energy is F=E-TS. E is the sum of the following terms:
     one-electron contribution =  -15055.28064399 Ry
     hartree contribution      =    7524.94745396 Ry
     xc contribution           =     -99.55062448 Ry
     ewald contribution        =    6641.57158638 Ry
     one-center paw contrib.   =     -19.04928045 Ry
      -> PAW hartree energy AE =      50.32059902 Ry
      -> PAW hartree energy PS =     -50.08617975 Ry
      -> PAW xc energy AE      =     -33.03852564 Ry
      -> PAW xc energy PS      =      13.75482592 Ry
      -> total E_H with PAW    =    7525.18187324 Ry
      -> total E_XC with PAW   =    -118.83432420 Ry

     convergence has been achieved in  15 iterations

     negative rho (up, down):  3.807E-04 0.000E+00

     Forces acting on atoms (cartesian axes, Ry/au):

     atom    1 type  2   force =     0.00000000    0.00000000    0.04843880
     atom    2 type  2   force =     0.00000000    0.00000000   -0.00956194
     atom    3 type  1   force =     0.00000000   -0.00000000    0.19576620
     atom    4 type  1   force =     0.00000000   -0.00000000   -0.00657254
     atom    5 type  3   force =     0.00000000    0.00000000   -0.22807051
     The non-local contrib.  to forces
     atom    1 type  2   force =    -0.00000000    0.00000000    0.03874357
     atom    2 type  2   force =     0.00000000    0.00000000   -0.34510664
     atom    3 type  1   force =     0.00000000    0.00000000    0.78345994
     atom    4 type  1   force =     0.00000000   -0.00000000   -0.02198801
     atom    5 type  3   force =     0.00000000    0.00000000   -0.02461694
     The ionic contribution  to forces
     atom    1 type  2   force =    -0.00000057    0.00000033  109.75464918
     atom    2 type  2   force =     0.00000005   -0.00000003 -229.05251102
     atom    3 type  1   force =    -0.00000000    0.00000000   94.37389730
     atom    4 type  1   force =     0.00000053   -0.00000030    7.33283136
     atom    5 type  3   force =    -0.00000000    0.00000000   17.59113318
     The local contribution  to forces
     atom    1 type  2   force =    -0.00001936    0.00001118 -109.74482807
     atom    2 type  2   force =     0.00001961   -0.00001132  229.38809427
     atom    3 type  1   force =    -0.00000134    0.00000077  -94.95057136
     atom    4 type  1   force =     0.00000113   -0.00000065   -7.31722728
     atom    5 type  3   force =    -0.00000005    0.00000003  -17.79461844
     The core correction contribution to forces
     atom    1 type  2   force =     0.00000000    0.00000000    0.00000000
     atom    2 type  2   force =     0.00000000    0.00000000    0.00000000
     atom    3 type  1   force =    -0.00000000    0.00000000   -0.01096298
     atom    4 type  1   force =     0.00000000   -0.00000000   -0.00002148
     atom    5 type  3   force =     0.00000000    0.00000000    0.00000000
     The Hubbard contrib.    to forces
     atom    1 type  2   force =     0.00000000    0.00000000    0.00000000
     atom    2 type  2   force =     0.00000000    0.00000000    0.00000000
     atom    3 type  1   force =     0.00000000    0.00000000    0.00000000
     atom    4 type  1   force =     0.00000000    0.00000000    0.00000000
     atom    5 type  3   force =     0.00000000    0.00000000    0.00000000
     The SCF correction term to forces
     atom    1 type  2   force =    -0.00000000    0.00000000   -0.00015946
     atom    2 type  2   force =     0.00000000   -0.00000000   -0.00007212
     atom    3 type  1   force =    -0.00000000    0.00000000   -0.00009027
     atom    4 type  1   force =     0.00000000   -0.00000000   -0.00020070
     atom    5 type  3   force =    -0.00000000    0.00000000   -0.00000188

     Total force =     0.304666     Total SCF correction =     0.000281

     Computing stress (Cartesian axis) and pressure

     negative rho (up, down):  3.807E-04 0.000E+00
          total   stress  (Ry/bohr**3)                   (kbar)     P=      -12.37
  -0.00001821   0.00000000   0.00000000           -2.68        0.00        0.00
   0.00000000  -0.00001821   0.00000000            0.00       -2.68        0.00
   0.00000000   0.00000000  -0.00021575            0.00        0.00      -31.74

     kinetic stress (kbar)   3535.92     -0.00      0.00
                               -0.00   3535.92      0.00
                                0.00      0.00   3432.04

     local   stress (kbar)-654012.83     -0.00      0.00
                               -0.00-654012.83     -0.00
                                0.00     -0.00 650535.67

     nonloc. stress (kbar)    -71.09      0.00      0.00
                                0.00    -71.09      0.00
                                0.00      0.00    -65.78

     hartree stress (kbar) 332264.84     -0.00     -0.00
                               -0.00 332264.84     -0.00
                               -0.00     -0.00-318445.01

     exc-cor stress (kbar)  -1423.15      0.00     -0.00
                                0.00  -1423.15      0.00
                               -0.00      0.00  -1421.11

     corecor stress (kbar)    -39.13     -0.00     -0.00
                               -0.00    -39.13      0.00
                               -0.00      0.00    -38.78

     ewald   stress (kbar) 319742.77      0.00     -0.00
                                0.00 319742.77      0.00
                               -0.00      0.00-334028.77

     hubbard stress (kbar)      0.00      0.00      0.00
                                0.00      0.00      0.00
                                0.00      0.00      0.00

     DFT-D   stress (kbar)      0.00      0.00      0.00
                                0.00      0.00      0.00
                                0.00      0.00      0.00

     XDM     stress (kbar)      0.00      0.00      0.00
                                0.00      0.00      0.00
                                0.00      0.00      0.00

     dft-nl  stress (kbar)      0.00      0.00      0.00
                                0.00      0.00      0.00
                                0.00      0.00      0.00

     TS-vdW  stress (kbar)      0.00      0.00      0.00
                                0.00      0.00      0.00
                                0.00      0.00      0.00

     MDB     stress (kbar)      0.00      0.00      0.00
                                0.00      0.00      0.00
                                0.00      0.00      0.00

     3D-RISM stress (kbar)      0.00      0.00      0.00
                                0.00      0.00      0.00
                                0.00      0.00      0.00

     Writing all to output data dir ./temp_hexag/aiida.save/ :
     XML data file, charge density, pseudopotentials, collected wavefunctions

     General routines

     Parallel routines

     PAW routines

   This run was terminated on:  20: 1:13  14Jun2024

   JOB DONE.