     Program PWSCF v.7.3.1 starts on  8Jun2024 at 19:59:35

     Waiting for input...
     Reading input from standard input

     Current dimensions of program PWSCF are:
     Max number of different atomic species (ntypx) = 10
     Max number of k-points (npk) =  40000
     Max angular momentum in pseudopotentials (lmaxx) =  4

     File ./temp_cubic/aiida.update deleted, as requested

     File ./temp_cubic/aiida.bfgs deleted, as requested
     file O.pbe-n-kjpaw_psl.0.1.UPF: wavefunction(s)  2P renormalized
     Found identity + (  0.0000  0.0000 -0.5000) symmetry
     This is a supercell, fractional translations are disabled
     Message from routine setup:
     using ibrav=0 with symmetry is DISCOURAGED, use correct ibrav instead

     Subspace diagonalization in iterative solution of the eigenvalue problem:
     a serial algorithm will be used

     Using Slab Decomposition

     bravais-lattice index     =            0
     lattice parameter (alat)  =      10.1737  a.u.
     unit-cell volume          =    1053.0320 (a.u.)^3
     number of atoms/cell      =           16
     number of atomic types    =            2
     number of electrons       =       208.00
     number of Kohn-Sham states=          125
     kinetic-energy cutoff     =      50.0000  Ry
     charge density cutoff     =     400.0000  Ry
     scf convergence threshold =      8.0E-08
     mixing beta               =       0.4000
     number of iterations used =            8  plain     mixing
     energy convergence thresh.=      1.6E-04
     force convergence thresh. =      1.0E-04
     press convergence thresh. =      5.0E-01
     Exchange-correlation= SLA  PW   PBE  PBE
                           (   1   4   3   4   0   0   0)
     nstep                     =           50

     celldm(1)=  10.173737  celldm(2)=   0.000000  celldm(3)=   0.000000
     celldm(4)=   0.000000  celldm(5)=   0.000000  celldm(6)=   0.000000

     crystal axes: (cart. coord. in units of alat)
               a(1) = (   1.000000   0.000000   0.000000 )
               a(2) = (   0.000000   1.000000   0.000000 )
               a(3) = (   0.000000   0.000000   1.000000 )

     reciprocal axes: (cart. coord. in units 2 pi/alat)
               b(1) = (  1.000000  0.000000  0.000000 )
               b(2) = (  0.000000  1.000000  0.000000 )
               b(3) = (  0.000000  0.000000  1.000000 )

     PseudoPot. # 1 for O  read from file:
     ../SSSP_1.3.0_PBE_efficiency/O.pbe-n-kjpaw_psl.0.1.UPF
     MD5 check sum: 0234752ac141de4415c5fc33072bef88
     Pseudo is Projector augmented-wave + core cor, Zval =  6.0
     Generated using "atomic" code by A. Dal Corso  v.5.0.99 svn rev. 10869
     Shape of augmentation charge: BESSEL
     Using radial grid of 1095 points,  4 beta functions with:
                l(1) =   0
                l(2) =   0
                l(3) =   1
                l(4) =   1
     Q(r) pseudized with 0 coefficients

     PseudoPot. # 2 for Zn read from file:
     ../SSSP_1.3.0_PBE_efficiency/Zn_pbe_v1.uspp.F.UPF
     MD5 check sum: df62231357ef9e81f77b2b3087fa5675
     Pseudo is Ultrasoft, Zval = 20.0
     Generated by new atomic code, or converted to UPF format
     Using radial grid of  943 points,  6 beta functions with:
                l(1) =   0
                l(2) =   0
                l(3) =   1
                l(4) =   1
                l(5) =   2
                l(6) =   2
     Q(r) pseudized with  8 coefficients,  rinner =    1.100   1.100   1.100
                                                       1.100   1.100

     atomic species   valence    mass     pseudopotential
     O                 6.00    15.99940     O ( 1.00)
     Zn               20.00    65.38000     Zn( 1.00)

     48 Sym. Ops., with inversion, found

                                    s                        frac. trans.

      isym =  1     identity

 cryst.   s( 1) = (     1          0          0      )
                  (     0          1          0      )
                  (     0          0          1      )

 cart.    s( 1) = (  1.0000000  0.0000000  0.0000000 )
                  (  0.0000000  1.0000000  0.0000000 )
                  (  0.0000000  0.0000000  1.0000000 )

      isym =  2     180 deg rotation - cart. axis [0,0,1]

[...]

 cryst.   s(10) = (     0          0         -1      )
                  (     0         -1          0      )
                  (    -1          0          0      )

 cart.    s(10) = (  0.0000000  0.0000000 -1.0000000 )
                  (  0.0000000 -1.0000000  0.0000000 )
                  ( -1.0000000  0.0000000  0.0000000 )

[...]

      isym = 25     inversion

[...]

      isym = 26     inv. 180 deg rotation - cart. axis [0,0,1]

[...]

   Cartesian axes

     site n.     atom                  positions (alat units)
         1        Zn     tau(   1) = (   0.0000000   0.0000000   0.0000000  )
         2        O      tau(   2) = (   0.2500000   0.2500000   0.2500000  )
         3        Zn     tau(   3) = (   0.0000000   0.0000000   0.5000000  )
         4        O      tau(   4) = (   0.2500000   0.2500000   0.7500000  )
         5        Zn     tau(   5) = (   0.0000000   0.5000000   0.0000000  )
         6        O      tau(   6) = (   0.2500000   0.7500000   0.2500000  )
         7        Zn     tau(   7) = (   0.0000000   0.5000000   0.5000000  )
         8        O      tau(   8) = (   0.2500000   0.7500000   0.7500000  )
         9        Zn     tau(   9) = (   0.5000000   0.0000000   0.0000000  )
        10        O      tau(  10) = (   0.7500000   0.2500000   0.2500000  )
        11        Zn     tau(  11) = (   0.5000000   0.0000000   0.5000000  )
        12        O      tau(  12) = (   0.7500000   0.2500000   0.7500000  )
        13        Zn     tau(  13) = (   0.5000000   0.5000000   0.0000000  )
        14        O      tau(  14) = (   0.7500000   0.7500000   0.2500000  )
        15        Zn     tau(  15) = (   0.5000000   0.5000000   0.5000000  )
        16        O      tau(  16) = (   0.7500000   0.7500000   0.7500000  )

   Crystallographic axes

     site n.     atom                  positions (cryst. coord.)
         1        Zn     tau(   1) = (  0.0000000  0.0000000  0.0000000  )
         2        O      tau(   2) = (  0.2500000  0.2500000  0.2500000  )
         3        Zn     tau(   3) = (  0.0000000  0.0000000  0.5000000  )
         4        O      tau(   4) = (  0.2500000  0.2500000  0.7500000  )
         5        Zn     tau(   5) = (  0.0000000  0.5000000  0.0000000  )
         6        O      tau(   6) = (  0.2500000  0.7500000  0.2500000  )
         7        Zn     tau(   7) = (  0.0000000  0.5000000  0.5000000  )
         8        O      tau(   8) = (  0.2500000  0.7500000  0.7500000  )
         9        Zn     tau(   9) = (  0.5000000  0.0000000  0.0000000  )
        10        O      tau(  10) = (  0.7500000  0.2500000  0.2500000  )
        11        Zn     tau(  11) = (  0.5000000  0.0000000  0.5000000  )
        12        O      tau(  12) = (  0.7500000  0.2500000  0.7500000  )
        13        Zn     tau(  13) = (  0.5000000  0.5000000  0.0000000  )
        14        O      tau(  14) = (  0.7500000  0.7500000  0.2500000  )
        15        Zn     tau(  15) = (  0.5000000  0.5000000  0.5000000  )
        16        O      tau(  16) = (  0.7500000  0.7500000  0.7500000  )

     number of k points=    20  Marzari-Vanderbilt smearing, width (Ry)=  0.0147
                       cart. coord. in units 2pi/alat
        k(    1) = (   0.0000000   0.0000000   0.0000000), wk =   0.0092593
        k(    2) = (   0.0000000   0.0000000   0.1666667), wk =   0.0555556
        k(    3) = (   0.0000000   0.0000000   0.3333333), wk =   0.0555556
        k(    4) = (   0.0000000   0.0000000  -0.5000000), wk =   0.0277778
        k(    5) = (   0.0000000   0.1666667   0.1666667), wk =   0.1111111
        k(    6) = (   0.0000000   0.1666667   0.3333333), wk =   0.2222222
        k(    7) = (   0.0000000   0.1666667  -0.5000000), wk =   0.1111111
        k(    8) = (   0.0000000   0.3333333   0.3333333), wk =   0.1111111
        k(    9) = (   0.0000000   0.3333333  -0.5000000), wk =   0.1111111
        k(   10) = (   0.0000000  -0.5000000  -0.5000000), wk =   0.0277778
        k(   11) = (   0.1666667   0.1666667   0.1666667), wk =   0.0740741
        k(   12) = (   0.1666667   0.1666667   0.3333333), wk =   0.2222222
        k(   13) = (   0.1666667   0.1666667  -0.5000000), wk =   0.1111111
        k(   14) = (   0.1666667   0.3333333   0.3333333), wk =   0.2222222
        k(   15) = (   0.1666667   0.3333333  -0.5000000), wk =   0.2222222
        k(   16) = (   0.1666667  -0.5000000  -0.5000000), wk =   0.0555556
        k(   17) = (   0.3333333   0.3333333   0.3333333), wk =   0.0740741
        k(   18) = (   0.3333333   0.3333333  -0.5000000), wk =   0.1111111
        k(   19) = (   0.3333333  -0.5000000  -0.5000000), wk =   0.0555556
        k(   20) = (  -0.5000000  -0.5000000  -0.5000000), wk =   0.0092593

                       cryst. coord.
        k(    1) = (   0.0000000   0.0000000   0.0000000), wk =   0.0092593
        k(    2) = (   0.0000000   0.0000000   0.1666667), wk =   0.0555556
        k(    3) = (   0.0000000   0.0000000   0.3333333), wk =   0.0555556
        k(    4) = (   0.0000000   0.0000000  -0.5000000), wk =   0.0277778
        k(    5) = (   0.0000000   0.1666667   0.1666667), wk =   0.1111111
        k(    6) = (   0.0000000   0.1666667   0.3333333), wk =   0.2222222
        k(    7) = (   0.0000000   0.1666667  -0.5000000), wk =   0.1111111
        k(    8) = (   0.0000000   0.3333333   0.3333333), wk =   0.1111111
        k(    9) = (   0.0000000   0.3333333  -0.5000000), wk =   0.1111111
        k(   10) = (   0.0000000  -0.5000000  -0.5000000), wk =   0.0277778
        k(   11) = (   0.1666667   0.1666667   0.1666667), wk =   0.0740741
        k(   12) = (   0.1666667   0.1666667   0.3333333), wk =   0.2222222
        k(   13) = (   0.1666667   0.1666667  -0.5000000), wk =   0.1111111
        k(   14) = (   0.1666667   0.3333333   0.3333333), wk =   0.2222222
        k(   15) = (   0.1666667   0.3333333  -0.5000000), wk =   0.2222222
        k(   16) = (   0.1666667  -0.5000000  -0.5000000), wk =   0.0555556
        k(   17) = (   0.3333333   0.3333333   0.3333333), wk =   0.0740741
        k(   18) = (   0.3333333   0.3333333  -0.5000000), wk =   0.1111111
        k(   19) = (   0.3333333  -0.5000000  -0.5000000), wk =   0.0555556
        k(   20) = (  -0.5000000  -0.5000000  -0.5000000), wk =   0.0092593

     Check: negative core charge=   -0.000003

     Initial potential from superposition of free atoms

     starting charge     207.9989, renormalised to     208.0000
     Starting wfcs are  136 randomized atomic wfcs
     Checking if some PAW data can be deallocated...

     Self-consistent Calculation

     iteration #  1     ecut=    50.00 Ry     beta= 0.40
     Davidson diagonalization with overlap

     ethr =  1.00E-02,  avg # of iterations =  2.8

     WARNING: integrated charge=   208.00007747, expected=   208.00000000

     total energy              =   -4024.31301578 Ry
     estimated scf accuracy    <       3.75307688 Ry

[...]

[...]
        k(   16) = (   0.1666667  -0.5000000  -0.5000000), wk =   0.0555556
        k(   17) = (   0.3333333   0.3333333   0.3333333), wk =   0.0740741
        k(   18) = (   0.3333333   0.3333333  -0.5000000), wk =   0.1111111
        k(   19) = (   0.3333333  -0.5000000  -0.5000000), wk =   0.0555556
        k(   20) = (  -0.5000000  -0.5000000  -0.5000000), wk =   0.0092593

     Check: negative core charge=   -0.000003

     Initial potential from superposition of free atoms

     starting charge     207.9989, renormalised to     208.0000
     Starting wfcs are  136 randomized atomic wfcs
     Checking if some PAW data can be deallocated...

     Self-consistent Calculation

[...]

     ethr =  1.00E-06,  avg # of iterations = 11.2

[...]

     WARNING: integrated charge=   208.00002112, expected=   208.00000000

[...]

     total energy              =   -4025.43146674 Ry
     estimated scf accuracy    <          2.0E-09 Ry

     iteration # 11     ecut=    50.00 Ry     beta= 0.40
     Davidson diagonalization with overlap

     ethr =  9.69E-13,  avg # of iterations =  2.0
     Minimization algorithm failed to find Fermi energy: reverting to bisection
     Possible cause: smearing is larger than the electronic band-gap.

     End of self-consistent calculation

[...]

          k = 0.3340-0.5010-0.5010 (  6196 PWs)   bands (ev):

[...]

          k =-0.5010-0.5010-0.5010 (  6152 PWs)   bands (ev):

  -112.2405-112.2405-112.2405-112.2405-112.2405-112.2405-112.2405-112.2405
   -66.4311 -66.4311 -66.4311 -66.4311 -66.4311 -66.4311 -66.4311 -66.4311
   -66.4308 -66.4308 -66.4308 -66.4308 -66.4308 -66.4308 -66.4308 -66.4308
   -66.4308 -66.4308 -66.4308 -66.4308 -66.4308 -66.4308 -66.4308 -66.4308
    -4.5059  -4.5059  -4.5059  -4.5059  -4.5059  -4.5059  -4.5059  -4.5059
     6.2141   6.2141   6.2141   6.2141   6.2141   6.2141   6.2141   6.2141
     6.2141   6.2141   6.2141   6.2141   6.2141   6.2141   6.2141   6.2141
     6.7347   6.7347   6.7347   6.7347   6.7347   6.7347   6.7347   6.7347
     6.7347   6.7347   6.7347   6.7347   6.7347   6.7347   6.7347   6.7347
     6.9115   6.9115   6.9115   6.9115   6.9115   6.9115   6.9115   6.9115
     8.0263   8.0263   8.0263   8.0263   8.0263   8.0263   8.0263   8.0263
    10.6811  10.6811  10.6811  10.6811  10.6811  10.6811  10.6811  10.6811
    10.6811  10.6811  10.6811  10.6811  10.6811  10.6811  10.6811  10.6811
    17.1539  17.1539  17.1539  17.1539  17.1539  17.1539  17.1539  17.1539
    22.7752  22.7752  22.7752  22.7752  22.7752  22.7752  22.7752  22.7752
    22.7752  22.7752  22.7752  22.7752  22.7752

     occupation numbers
     1.0000   1.0000   1.0000   1.0000   1.0000   1.0000   1.0000   1.0000
     1.0000   1.0000   1.0000   1.0000   1.0000   1.0000   1.0000   1.0000
     1.0000   1.0000   1.0000   1.0000   1.0000   1.0000   1.0000   1.0000
     1.0000   1.0000   1.0000   1.0000   1.0000   1.0000   1.0000   1.0000
     1.0000   1.0000   1.0000   1.0000   1.0000   1.0000   1.0000   1.0000
     1.0000   1.0000   1.0000   1.0000   1.0000   1.0000   1.0000   1.0000
     1.0000   1.0000   1.0000   1.0000   1.0000   1.0000   1.0000   1.0000
     1.0000   1.0000   1.0000   1.0000   1.0000   1.0000   1.0000   1.0000
     1.0000   1.0000   1.0000   1.0000   1.0000   1.0000   1.0000   1.0000
     1.0000   1.0000   1.0000   1.0000   1.0000   1.0000   1.0000   1.0000
     1.0000   1.0000   1.0000   1.0000   1.0000   1.0000   1.0000   1.0000
     1.0000   1.0000   1.0000   1.0000   1.0000   1.0000   1.0000   1.0000
     1.0000   1.0000   1.0000   1.0000   1.0000   1.0000   1.0000   1.0000
     0.0000   0.0000   0.0000   0.0000   0.0000   0.0000   0.0000   0.0000
     0.0000   0.0000   0.0000   0.0000   0.0000   0.0000   0.0000   0.0000
     0.0000   0.0000   0.0000   0.0000   0.0000

     the Fermi energy is    12.5386 ev

!    total energy              =   -4025.43146674 Ry
     estimated scf accuracy    <          2.2E-10 Ry
     smearing contrib. (-TS)   =       0.00914641 Ry
     internal energy E=F+TS    =   -4025.44061315 Ry

     The total energy is F=E-TS. E is the sum of the following terms:
     one-electron contribution =   -2817.55976456 Ry
     hartree contribution      =    1518.61854456 Ry
     xc contribution           =    -397.64546228 Ry
     ewald contribution        =   -2252.60723127 Ry
     one-center paw contrib.   =     -76.24669959 Ry
      -> PAW hartree energy AE =     204.89968079 Ry
      -> PAW hartree energy PS =    -203.98759257 Ry
      -> PAW xc energy AE      =    -132.76273923 Ry
      -> PAW xc energy PS      =      55.60395143 Ry
      -> total E_H with PAW    =    1519.53063277 Ry
      -> total E_XC with PAW   =    -474.80425009 Ry

     convergence has been achieved in  11 iterations

     Forces acting on atoms (cartesian axes, Ry/au):

     atom    1 type  2   force =     0.00000000    0.00000000    0.00000000
     atom    2 type  1   force =     0.00000007    0.00000007    0.00000007
     atom    3 type  2   force =     0.00000000    0.00000000    0.00000000
     atom    4 type  1   force =     0.00000007    0.00000007   -0.00000007
     atom    5 type  2   force =     0.00000000    0.00000000    0.00000000
     atom    6 type  1   force =     0.00000007   -0.00000007    0.00000007
     atom    7 type  2   force =     0.00000000    0.00000000    0.00000000
     atom    8 type  1   force =     0.00000007   -0.00000007   -0.00000007
     atom    9 type  2   force =     0.00000000    0.00000000    0.00000000
     atom   10 type  1   force =    -0.00000007    0.00000007    0.00000007
     atom   11 type  2   force =     0.00000000    0.00000000    0.00000000
     atom   12 type  1   force =    -0.00000007    0.00000007   -0.00000007
     atom   13 type  2   force =     0.00000000    0.00000000    0.00000000
     atom   14 type  1   force =    -0.00000007   -0.00000007    0.00000007
     atom   15 type  2   force =     0.00000000    0.00000000    0.00000000
     atom   16 type  1   force =    -0.00000007   -0.00000007   -0.00000007
     The non-local contrib.  to forces
     atom    1 type  2   force =     0.00000000    0.00000000    0.00000000
     atom    2 type  1   force =     0.00000007    0.00000007    0.00000007
     atom    3 type  2   force =     0.00000000    0.00000000    0.00000000
     atom    4 type  1   force =     0.00000007    0.00000007   -0.00000007
     atom    5 type  2   force =     0.00000000    0.00000000    0.00000000
     atom    6 type  1   force =     0.00000007   -0.00000007    0.00000007
     atom    7 type  2   force =     0.00000000    0.00000000    0.00000000
     atom    8 type  1   force =     0.00000007   -0.00000007   -0.00000007
     atom    9 type  2   force =     0.00000000    0.00000000    0.00000000
     atom   10 type  1   force =    -0.00000007    0.00000007    0.00000007
     atom   11 type  2   force =     0.00000000    0.00000000    0.00000000
     atom   12 type  1   force =    -0.00000007    0.00000007   -0.00000007
     atom   13 type  2   force =     0.00000000    0.00000000    0.00000000
     atom   14 type  1   force =    -0.00000007   -0.00000007    0.00000007
     atom   15 type  2   force =     0.00000000    0.00000000    0.00000000
     atom   16 type  1   force =    -0.00000007   -0.00000007   -0.00000007
     The ionic contribution  to forces
     atom    1 type  2   force =    -0.00000000   -0.00000000   -0.00000000
     atom    2 type  1   force =     0.00000222    0.00000222    0.00000222
     atom    3 type  2   force =    -0.00000000   -0.00000000    0.00000000
     atom    4 type  1   force =     0.00000222    0.00000222   -0.00000222
     atom    5 type  2   force =    -0.00000000    0.00000000   -0.00000000
     atom    6 type  1   force =     0.00000222   -0.00000222    0.00000222
     atom    7 type  2   force =    -0.00000000    0.00000000    0.00000000
     atom    8 type  1   force =     0.00000222   -0.00000222   -0.00000222
     atom    9 type  2   force =     0.00000000   -0.00000000   -0.00000000
     atom   10 type  1   force =    -0.00000222    0.00000222    0.00000222
     atom   11 type  2   force =     0.00000000   -0.00000000    0.00000000
     atom   12 type  1   force =    -0.00000222    0.00000222   -0.00000222
     atom   13 type  2   force =     0.00000000    0.00000000   -0.00000000
     atom   14 type  1   force =    -0.00000222   -0.00000222    0.00000222
     atom   15 type  2   force =     0.00000000    0.00000000    0.00000000
     atom   16 type  1   force =    -0.00000222   -0.00000222   -0.00000222
     The local contribution  to forces
     atom    1 type  2   force =    -0.00000000    0.00000000    0.00000000
     atom    2 type  1   force =    -0.00000239   -0.00000239   -0.00000239
     atom    3 type  2   force =    -0.00000000    0.00000000   -0.00000000
     atom    4 type  1   force =    -0.00000239   -0.00000239    0.00000239
     atom    5 type  2   force =    -0.00000000   -0.00000000    0.00000000
     atom    6 type  1   force =    -0.00000239    0.00000239   -0.00000239
     atom    7 type  2   force =    -0.00000000   -0.00000000   -0.00000000
     atom    8 type  1   force =    -0.00000239    0.00000239    0.00000239
     atom    9 type  2   force =    -0.00000000    0.00000000    0.00000000
     atom   10 type  1   force =     0.00000239   -0.00000239   -0.00000239
     atom   11 type  2   force =    -0.00000000    0.00000000   -0.00000000
     atom   12 type  1   force =     0.00000239   -0.00000239    0.00000239
     atom   13 type  2   force =    -0.00000000   -0.00000000    0.00000000
     atom   14 type  1   force =     0.00000239    0.00000239   -0.00000239
     atom   15 type  2   force =    -0.00000000   -0.00000000   -0.00000000
     atom   16 type  1   force =     0.00000239    0.00000239    0.00000239
     The core correction contribution to forces
     atom    1 type  2   force =     0.00000000    0.00000000    0.00000000
     atom    2 type  1   force =    -0.00000000   -0.00000000   -0.00000000
     atom    3 type  2   force =     0.00000000    0.00000000    0.00000000
     atom    4 type  1   force =    -0.00000000   -0.00000000    0.00000000
     atom    5 type  2   force =     0.00000000    0.00000000    0.00000000
     atom    6 type  1   force =    -0.00000000    0.00000000   -0.00000000
     atom    7 type  2   force =     0.00000000    0.00000000    0.00000000
     atom    8 type  1   force =    -0.00000000    0.00000000    0.00000000
     atom    9 type  2   force =     0.00000000    0.00000000    0.00000000
     atom   10 type  1   force =     0.00000000   -0.00000000   -0.00000000
     atom   11 type  2   force =     0.00000000    0.00000000    0.00000000
     atom   12 type  1   force =     0.00000000   -0.00000000    0.00000000
     atom   13 type  2   force =     0.00000000    0.00000000    0.00000000
     atom   14 type  1   force =     0.00000000    0.00000000   -0.00000000
     atom   15 type  2   force =     0.00000000    0.00000000    0.00000000
     atom   16 type  1   force =     0.00000000    0.00000000    0.00000000
     The Hubbard contrib.    to forces
     atom    1 type  2   force =     0.00000000    0.00000000    0.00000000
     atom    2 type  1   force =     0.00000000    0.00000000    0.00000000
     atom    3 type  2   force =     0.00000000    0.00000000    0.00000000
     atom    4 type  1   force =     0.00000000    0.00000000    0.00000000
     atom    5 type  2   force =     0.00000000    0.00000000    0.00000000
     atom    6 type  1   force =     0.00000000    0.00000000    0.00000000
     atom    7 type  2   force =     0.00000000    0.00000000    0.00000000
     atom    8 type  1   force =     0.00000000    0.00000000    0.00000000
     atom    9 type  2   force =     0.00000000    0.00000000    0.00000000
     atom   10 type  1   force =     0.00000000    0.00000000    0.00000000
     atom   11 type  2   force =     0.00000000    0.00000000    0.00000000
     atom   12 type  1   force =     0.00000000    0.00000000    0.00000000
     atom   13 type  2   force =     0.00000000    0.00000000    0.00000000
     atom   14 type  1   force =     0.00000000    0.00000000    0.00000000
     atom   15 type  2   force =     0.00000000    0.00000000    0.00000000
     atom   16 type  1   force =     0.00000000    0.00000000    0.00000000
     The SCF correction term to forces
     atom    1 type  2   force =    -0.00000000   -0.00000000   -0.00000000
     atom    2 type  1   force =     0.00000016    0.00000016    0.00000016
     atom    3 type  2   force =    -0.00000000   -0.00000000    0.00000000
     atom    4 type  1   force =     0.00000016    0.00000016   -0.00000016
     atom    5 type  2   force =    -0.00000000    0.00000000    0.00000000
     atom    6 type  1   force =     0.00000016   -0.00000016    0.00000016
     atom    7 type  2   force =    -0.00000000    0.00000000    0.00000000
     atom    8 type  1   force =     0.00000016   -0.00000016   -0.00000016
     atom    9 type  2   force =     0.00000000    0.00000000   -0.00000000
     atom   10 type  1   force =    -0.00000016    0.00000016    0.00000016
     atom   11 type  2   force =     0.00000000    0.00000000   -0.00000000
     atom   12 type  1   force =    -0.00000016    0.00000016   -0.00000016
     atom   13 type  2   force =     0.00000000   -0.00000000   -0.00000000
     atom   14 type  1   force =    -0.00000016   -0.00000016    0.00000016
     atom   15 type  2   force =     0.00000000   -0.00000000   -0.00000000
     atom   16 type  1   force =    -0.00000016   -0.00000016   -0.00000016

     Total force =     0.000000     Total SCF correction =     0.000001
     SCF correction compared to forces is large: reduce conv_thr to get better values

     Computing stress (Cartesian axis) and pressure

          total   stress  (Ry/bohr**3)                   (kbar)     P=       -0.63
  -0.00000426   0.00000000   0.00000000           -0.63        0.00        0.00
   0.00000000  -0.00000426   0.00000000            0.00       -0.63        0.00
   0.00000000   0.00000000  -0.00000426            0.00        0.00       -0.63

     kinetic stress (kbar)  42714.36      0.00      0.00
                                0.00  42714.36      0.00
                                0.00      0.00  42714.36

     local   stress (kbar)  10445.85      0.00      0.00
                                0.00  10445.85     -0.00
                                0.00     -0.00  10445.85

     nonloc. stress (kbar)   -950.81      0.00      0.00
                                0.00   -950.81      0.00
                                0.00      0.00   -950.81

     hartree stress (kbar)  71133.65     -0.00     -0.00
                               -0.00  71133.65      0.00
                               -0.00      0.00  71133.65

     exc-cor stress (kbar) -17351.61     -0.00     -0.00
                               -0.00 -17351.61     -0.00
                               -0.00     -0.00 -17351.61

     corecor stress (kbar)   -477.63     -0.00     -0.00
                               -0.00   -477.63     -0.00
                               -0.00     -0.00   -477.63

     ewald   stress (kbar)-105514.44      0.00     -0.00
                                0.00-105514.44     -0.00
                               -0.00     -0.00-105514.44

     hubbard stress (kbar)      0.00      0.00      0.00
                                0.00      0.00      0.00
                                0.00      0.00      0.00

     DFT-D   stress (kbar)      0.00      0.00      0.00
                                0.00      0.00      0.00
                                0.00      0.00      0.00

     XDM     stress (kbar)      0.00      0.00      0.00
                                0.00      0.00      0.00
                                0.00      0.00      0.00

     dft-nl  stress (kbar)      0.00      0.00      0.00
                                0.00      0.00      0.00
                                0.00      0.00      0.00

     TS-vdW  stress (kbar)      0.00      0.00      0.00
                                0.00      0.00      0.00
                                0.00      0.00      0.00

     MDB     stress (kbar)      0.00      0.00      0.00
                                0.00      0.00      0.00
                                0.00      0.00      0.00

     3D-RISM stress (kbar)      0.00      0.00      0.00
                                0.00      0.00      0.00
                                0.00      0.00      0.00

     Writing all to output data dir ./temp_cubic/aiida.save/ :
     XML data file, charge density, pseudopotentials, collected wavefunctions

     General routines

     Parallel routines

     PAW routines

   This run was terminated on:  20:57:35   8Jun2024

   JOB DONE.