     Program PWSCF v.7.3.1 starts on 13Jun2024 at 17:15:23

     Waiting for input...
     Reading input from standard input

     Current dimensions of program PWSCF are:
     Max number of different atomic species (ntypx) = 10
     Max number of k-points (npk) =  40000
     Max angular momentum in pseudopotentials (lmaxx) =  4
     file O.pbe-n-kjpaw_psl.0.1.UPF: wavefunction(s)  2P renormalized
     Message from routine setup:
     using ibrav=0 with symmetry is DISCOURAGED, use correct ibrav instead

     Subspace diagonalization in iterative solution of the eigenvalue problem:
     a serial algorithm will be used

     Using Slab Decomposition

     bravais-lattice index     =            0
     lattice parameter (alat)  =       5.0879  a.u.
     unit-cell volume          =     131.5765 (a.u.)^3
     number of atoms/cell      =            2
     number of atomic types    =            2
     number of electrons       =        26.00
     number of Kohn-Sham states=           17
     kinetic-energy cutoff     =      50.0000  Ry
     charge density cutoff     =     400.0000  Ry
     scf convergence threshold =      1.0E-08
     mixing beta               =       0.4000
     number of iterations used =            8  plain     mixing
     Exchange-correlation= SLA  PW   PBE  PBE
                           (   1   4   3   4   0   0   0)

     celldm(1)=   5.087888  celldm(2)=   0.000000  celldm(3)=   0.000000
     celldm(4)=   0.000000  celldm(5)=   0.000000  celldm(6)=   0.000000

     crystal axes: (cart. coord. in units of alat)
               a(1) = (   0.999800   0.019996   0.000000 )
               a(2) = (   0.019996   0.999800   0.000000 )
               a(3) = (   0.000000   0.000000   0.999800 )

     reciprocal axes: (cart. coord. in units 2 pi/alat)
               b(1) = (  1.000600 -0.020012  0.000000 )
               b(2) = ( -0.020012  1.000600  0.000000 )
               b(3) = (  0.000000  0.000000  1.000200 )

     PseudoPot. # 1 for O  read from file:
     ../SSSP_1.3.0_PBE_efficiency/O.pbe-n-kjpaw_psl.0.1.UPF
     MD5 check sum: 0234752ac141de4415c5fc33072bef88
     Pseudo is Projector augmented-wave + core cor, Zval =  6.0
     Generated using "atomic" code by A. Dal Corso  v.5.0.99 svn rev. 10869
     Shape of augmentation charge: BESSEL
     Using radial grid of 1095 points,  4 beta functions with:
                l(1) =   0
                l(2) =   0
                l(3) =   1
                l(4) =   1
     Q(r) pseudized with 0 coefficients

     PseudoPot. # 2 for Zn read from file:
     ../SSSP_1.3.0_PBE_efficiency/Zn_pbe_v1.uspp.F.UPF
     MD5 check sum: df62231357ef9e81f77b2b3087fa5675
     Pseudo is Ultrasoft, Zval = 20.0
     Generated by new atomic code, or converted to UPF format
     Using radial grid of  943 points,  6 beta functions with:
                l(1) =   0
                l(2) =   0
                l(3) =   1
                l(4) =   1
                l(5) =   2
                l(6) =   2
     Q(r) pseudized with  8 coefficients,  rinner =    1.100   1.100   1.100
                                                       1.100   1.100

     atomic species   valence    mass     pseudopotential
     O                 6.00    15.99940     O ( 1.00)
     Zn               20.00    65.38000     Zn( 1.00)

      8 Sym. Ops., with inversion, found

                                    s                        frac. trans.

      isym =  1     identity

 cryst.   s( 1) = (     1          0          0      )
                  (     0          1          0      )
                  (     0          0          1      )

 cart.    s( 1) = (  1.0000000  0.0000000  0.0000000 )
                  (  0.0000000  1.0000000  0.0000000 )
                  (  0.0000000  0.0000000  1.0000000 )

      isym =  2     180 deg rotation - cart. axis [0,0,1]

[...]

      isym =  4     180 deg rotation - cart. axis [1,-1,0]

[...]

      isym =  5     inversion

[...]

      isym =  6     inv. 180 deg rotation - cart. axis [0,0,1]

[...]

      isym =  8     inv. 180 deg rotation - cart. axis [1,-1,0]

 cryst.   s( 8) = (     0          1          0      )
                  (     1          0          0      )
                  (     0          0          1      )

 cart.    s( 8) = (  0.0000000  1.0000000  0.0000000 )
                  (  1.0000000  0.0000000  0.0000000 )
                  (  0.0000000  0.0000000  1.0000000 )

   Cartesian axes

     site n.     atom                  positions (alat units)
         1        Zn     tau(   1) = (   0.0000000   0.0000000   0.0000000  )
         2        O      tau(   2) = (   0.5098980   0.5098980   0.4999000  )

   Crystallographic axes

     site n.     atom                  positions (cryst. coord.)
         1        Zn     tau(   1) = (  0.0000000  0.0000000  0.0000000  )
         2        O      tau(   2) = (  0.5000000  0.5000000  0.5000000  )

     number of k points=   301  Marzari-Vanderbilt smearing, width (Ry)=  0.0147
                       cart. coord. in units 2pi/alat
        k(    1) = (   0.0000000   0.0000000   0.0000000), wk =   0.0011574
        k(    2) = (   0.0000000   0.0000000   0.0833500), wk =   0.0023148
        k(    3) = (   0.0000000   0.0000000   0.1667000), wk =   0.0023148
        k(    4) = (   0.0000000   0.0000000   0.2500500), wk =   0.0023148
        k(    5) = (   0.0000000   0.0000000   0.3334000), wk =   0.0023148
        k(    6) = (   0.0000000   0.0000000   0.4167500), wk =   0.0023148
        k(    7) = (   0.0000000   0.0000000  -0.5001000), wk =   0.0011574
        k(    8) = (  -0.0016677   0.0833834   0.0000000), wk =   0.0046296
        k(    9) = (  -0.0016677   0.0833834   0.0833500), wk =   0.0092593
        k(   10) = (  -0.0016677   0.0833834   0.1667000), wk =   0.0092593
        k(   11) = (  -0.0016677   0.0833834   0.2500500), wk =   0.0092593
        k(   12) = (  -0.0016677   0.0833834   0.3334000), wk =   0.0092593
        k(   13) = (  -0.0016677   0.0833834   0.4167500), wk =   0.0092593
        k(   14) = (  -0.0016677   0.0833834  -0.5001000), wk =   0.0046296
        k(   15) = (  -0.0033353   0.1667667   0.0000000), wk =   0.0046296
        k(   16) = (  -0.0033353   0.1667667   0.0833500), wk =   0.0092593
        k(   17) = (  -0.0033353   0.1667667   0.1667000), wk =   0.0092593
        k(   18) = (  -0.0033353   0.1667667   0.2500500), wk =   0.0092593
        k(   19) = (  -0.0033353   0.1667667   0.3334000), wk =   0.0092593
        k(   20) = (  -0.0033353   0.1667667   0.4167500), wk =   0.0092593
        k(   21) = (  -0.0033353   0.1667667  -0.5001000), wk =   0.0046296
        k(   22) = (  -0.0050030   0.2501501   0.0000000), wk =   0.0046296
        k(   23) = (  -0.0050030   0.2501501   0.0833500), wk =   0.0092593
        k(   24) = (  -0.0050030   0.2501501   0.1667000), wk =   0.0092593
        k(   25) = (  -0.0050030   0.2501501   0.2500500), wk =   0.0092593
        k(   26) = (  -0.0050030   0.2501501   0.3334000), wk =   0.0092593
        k(   27) = (  -0.0050030   0.2501501   0.4167500), wk =   0.0092593
        k(   28) = (  -0.0050030   0.2501501  -0.5001000), wk =   0.0046296
        k(   29) = (  -0.0066707   0.3335334   0.0000000), wk =   0.0046296
        k(   30) = (  -0.0066707   0.3335334   0.0833500), wk =   0.0092593
        k(   31) = (  -0.0066707   0.3335334   0.1667000), wk =   0.0092593
        k(   32) = (  -0.0066707   0.3335334   0.2500500), wk =   0.0092593
        k(   33) = (  -0.0066707   0.3335334   0.3334000), wk =   0.0092593
        k(   34) = (  -0.0066707   0.3335334   0.4167500), wk =   0.0092593
        k(   35) = (  -0.0066707   0.3335334  -0.5001000), wk =   0.0046296
        k(   36) = (  -0.0083383   0.4169168   0.0000000), wk =   0.0046296
        k(   37) = (  -0.0083383   0.4169168   0.0833500), wk =   0.0092593
        k(   38) = (  -0.0083383   0.4169168   0.1667000), wk =   0.0092593
        k(   39) = (  -0.0083383   0.4169168   0.2500500), wk =   0.0092593
        k(   40) = (  -0.0083383   0.4169168   0.3334000), wk =   0.0092593
        k(   41) = (  -0.0083383   0.4169168   0.4167500), wk =   0.0092593
        k(   42) = (  -0.0083383   0.4169168  -0.5001000), wk =   0.0046296
        k(   43) = (   0.0100060  -0.5003001   0.0000000), wk =   0.0023148
        k(   44) = (   0.0100060  -0.5003001   0.0833500), wk =   0.0046296
        k(   45) = (   0.0100060  -0.5003001   0.1667000), wk =   0.0046296
        k(   46) = (   0.0100060  -0.5003001   0.2500500), wk =   0.0046296
        k(   47) = (   0.0100060  -0.5003001   0.3334000), wk =   0.0046296
        k(   48) = (   0.0100060  -0.5003001   0.4167500), wk =   0.0046296
        k(   49) = (   0.0100060  -0.5003001  -0.5001000), wk =   0.0023148
        k(   50) = (   0.0817157   0.0817157   0.0000000), wk =   0.0023148
        k(   51) = (   0.0817157   0.0817157   0.0833500), wk =   0.0046296
        k(   52) = (   0.0817157   0.0817157   0.1667000), wk =   0.0046296
        k(   53) = (   0.0817157   0.0817157   0.2500500), wk =   0.0046296
        k(   54) = (   0.0817157   0.0817157   0.3334000), wk =   0.0046296
        k(   55) = (   0.0817157   0.0817157   0.4167500), wk =   0.0046296
        k(   56) = (   0.0817157   0.0817157  -0.5001000), wk =   0.0023148
        k(   57) = (   0.0800480   0.1650990   0.0000000), wk =   0.0046296
        k(   58) = (   0.0800480   0.1650990   0.0833500), wk =   0.0092593
        k(   59) = (   0.0800480   0.1650990   0.1667000), wk =   0.0092593
        k(   60) = (   0.0800480   0.1650990   0.2500500), wk =   0.0092593
[...]
        k(  287) = (   0.4269228  -0.5086384  -0.5001000), wk =   0.0046296
        k(  288) = (   0.4252551  -0.4252551   0.0000000), wk =   0.0023148
        k(  289) = (   0.4252551  -0.4252551   0.0833500), wk =   0.0046296
        k(  290) = (   0.4252551  -0.4252551   0.1667000), wk =   0.0046296
        k(  291) = (   0.4252551  -0.4252551   0.2500500), wk =   0.0046296
        k(  292) = (   0.4252551  -0.4252551   0.3334000), wk =   0.0046296
        k(  293) = (   0.4252551  -0.4252551   0.4167500), wk =   0.0046296
        k(  294) = (   0.4252551  -0.4252551  -0.5001000), wk =   0.0023148
        k(  295) = (  -0.4902941  -0.4902941   0.0000000), wk =   0.0011574
        k(  296) = (  -0.4902941  -0.4902941   0.0833500), wk =   0.0023148
        k(  297) = (  -0.4902941  -0.4902941   0.1667000), wk =   0.0023148
        k(  298) = (  -0.4902941  -0.4902941   0.2500500), wk =   0.0023148
        k(  299) = (  -0.4902941  -0.4902941   0.3334000), wk =   0.0023148
        k(  300) = (  -0.4902941  -0.4902941   0.4167500), wk =   0.0023148
        k(  301) = (  -0.4902941  -0.4902941  -0.5001000), wk =   0.0011574

                       cryst. coord.
        k(    1) = (   0.0000000   0.0000000   0.0000000), wk =   0.0011574
        k(    2) = (   0.0000000   0.0000000   0.0833333), wk =   0.0023148
        k(    3) = (   0.0000000   0.0000000   0.1666667), wk =   0.0023148
        k(    4) = (   0.0000000   0.0000000   0.2500000), wk =   0.0023148
        k(    5) = (   0.0000000   0.0000000   0.3333333), wk =   0.0023148
        k(    6) = (   0.0000000   0.0000000   0.4166667), wk =   0.0023148
        k(    7) = (   0.0000000   0.0000000  -0.5000000), wk =   0.0011574
        k(    8) = (   0.0000000   0.0833333   0.0000000), wk =   0.0046296
        k(    9) = (   0.0000000   0.0833333   0.0833333), wk =   0.0092593
        k(   10) = (   0.0000000   0.0833333   0.1666667), wk =   0.0092593
        k(   11) = (   0.0000000   0.0833333   0.2500000), wk =   0.0092593
        k(   12) = (   0.0000000   0.0833333   0.3333333), wk =   0.0092593
        k(   13) = (   0.0000000   0.0833333   0.4166667), wk =   0.0092593
        k(   14) = (   0.0000000   0.0833333  -0.5000000), wk =   0.0046296
        k(   15) = (   0.0000000   0.1666667   0.0000000), wk =   0.0046296
        k(   16) = (   0.0000000   0.1666667   0.0833333), wk =   0.0092593
        k(   17) = (   0.0000000   0.1666667   0.1666667), wk =   0.0092593
        k(   18) = (   0.0000000   0.1666667   0.2500000), wk =   0.0092593
        k(   19) = (   0.0000000   0.1666667   0.3333333), wk =   0.0092593
        k(   20) = (   0.0000000   0.1666667   0.4166667), wk =   0.0092593
        k(   21) = (   0.0000000   0.1666667  -0.5000000), wk =   0.0046296
        k(   22) = (   0.0000000   0.2500000   0.0000000), wk =   0.0046296
        k(   23) = (   0.0000000   0.2500000   0.0833333), wk =   0.0092593
        k(   24) = (   0.0000000   0.2500000   0.1666667), wk =   0.0092593
        k(   25) = (   0.0000000   0.2500000   0.2500000), wk =   0.0092593
        k(   26) = (   0.0000000   0.2500000   0.3333333), wk =   0.0092593
        k(   27) = (   0.0000000   0.2500000   0.4166667), wk =   0.0092593
        k(   28) = (   0.0000000   0.2500000  -0.5000000), wk =   0.0046296
        k(   29) = (   0.0000000   0.3333333   0.0000000), wk =   0.0046296
        k(   30) = (   0.0000000   0.3333333   0.0833333), wk =   0.0092593
        k(   31) = (   0.0000000   0.3333333   0.1666667), wk =   0.0092593
        k(   32) = (   0.0000000   0.3333333   0.2500000), wk =   0.0092593
        k(   33) = (   0.0000000   0.3333333   0.3333333), wk =   0.0092593
        k(   34) = (   0.0000000   0.3333333   0.4166667), wk =   0.0092593
        k(   35) = (   0.0000000   0.3333333  -0.5000000), wk =   0.0046296
        k(   36) = (   0.0000000   0.4166667   0.0000000), wk =   0.0046296
        k(   37) = (   0.0000000   0.4166667   0.0833333), wk =   0.0092593
        k(   38) = (   0.0000000   0.4166667   0.1666667), wk =   0.0092593
        k(   39) = (   0.0000000   0.4166667   0.2500000), wk =   0.0092593
        k(   40) = (   0.0000000   0.4166667   0.3333333), wk =   0.0092593
        k(   41) = (   0.0000000   0.4166667   0.4166667), wk =   0.0092593
        k(   42) = (   0.0000000   0.4166667  -0.5000000), wk =   0.0046296
        k(   43) = (   0.0000000  -0.5000000   0.0000000), wk =   0.0023148
        k(   44) = (   0.0000000  -0.5000000   0.0833333), wk =   0.0046296
        k(   45) = (   0.0000000  -0.5000000   0.1666667), wk =   0.0046296
        k(   46) = (   0.0000000  -0.5000000   0.2500000), wk =   0.0046296
        k(   47) = (   0.0000000  -0.5000000   0.3333333), wk =   0.0046296
        k(   48) = (   0.0000000  -0.5000000   0.4166667), wk =   0.0046296
        k(   49) = (   0.0000000  -0.5000000  -0.5000000), wk =   0.0023148
        k(   50) = (   0.0833333   0.0833333   0.0000000), wk =   0.0023148
        k(   51) = (   0.0833333   0.0833333   0.0833333), wk =   0.0046296
        k(   52) = (   0.0833333   0.0833333   0.1666667), wk =   0.0046296
        k(   53) = (   0.0833333   0.0833333   0.2500000), wk =   0.0046296
        k(   54) = (   0.0833333   0.0833333   0.3333333), wk =   0.0046296
        k(   55) = (   0.0833333   0.0833333   0.4166667), wk =   0.0046296
        k(   56) = (   0.0833333   0.0833333  -0.5000000), wk =   0.0023148
        k(   57) = (   0.0833333   0.1666667   0.0000000), wk =   0.0046296
        k(   58) = (   0.0833333   0.1666667   0.0833333), wk =   0.0092593
        k(   59) = (   0.0833333   0.1666667   0.1666667), wk =   0.0092593
        k(   60) = (   0.0833333   0.1666667   0.2500000), wk =   0.0092593
[...]
        k(  287) = (   0.4166667  -0.5000000  -0.5000000), wk =   0.0046296
        k(  288) = (   0.4166667  -0.4166667   0.0000000), wk =   0.0023148
        k(  289) = (   0.4166667  -0.4166667   0.0833333), wk =   0.0046296
        k(  290) = (   0.4166667  -0.4166667   0.1666667), wk =   0.0046296
        k(  291) = (   0.4166667  -0.4166667   0.2500000), wk =   0.0046296
        k(  292) = (   0.4166667  -0.4166667   0.3333333), wk =   0.0046296
        k(  293) = (   0.4166667  -0.4166667   0.4166667), wk =   0.0046296
        k(  294) = (   0.4166667  -0.4166667  -0.5000000), wk =   0.0023148
        k(  295) = (  -0.5000000  -0.5000000   0.0000000), wk =   0.0011574
        k(  296) = (  -0.5000000  -0.5000000   0.0833333), wk =   0.0023148
        k(  297) = (  -0.5000000  -0.5000000   0.1666667), wk =   0.0023148
        k(  298) = (  -0.5000000  -0.5000000   0.2500000), wk =   0.0023148
        k(  299) = (  -0.5000000  -0.5000000   0.3333333), wk =   0.0023148
        k(  300) = (  -0.5000000  -0.5000000   0.4166667), wk =   0.0023148
        k(  301) = (  -0.5000000  -0.5000000  -0.5000000), wk =   0.0011574

     Check: negative core charge=   -0.000003

     Initial potential from superposition of free atoms

     starting charge      25.9999, renormalised to      26.0000
     Starting wfcs are   17 randomized atomic wfcs
     Checking if some PAW data can be deallocated...

     Self-consistent Calculation

     iteration #  1     ecut=    50.00 Ry     beta= 0.40
     Davidson diagonalization with overlap

     ethr =  1.00E-02,  avg # of iterations =  2.9

     WARNING: integrated charge=    26.00001321, expected=    26.00000000

     total energy              =    -503.04063080 Ry
     estimated scf accuracy    <       0.46795234 Ry

[...]

     ethr =  1.80E-03,  avg # of iterations =  2.1
     Minimization algorithm failed to find Fermi energy: reverting to bisection
     Possible cause: smearing is larger than the electronic band-gap.

[...]

     total energy              =    -503.17179711 Ry
     estimated scf accuracy    <       0.00000003 Ry

     iteration #  9     ecut=    50.00 Ry     beta= 0.40
     Davidson diagonalization with overlap

     ethr =  1.33E-10,  avg # of iterations =  2.0

     End of self-consistent calculation

          k = 0.0000 0.0000 0.0000 (   773 PWs)   bands (ev):

  -112.3437 -66.5358 -66.5243 -66.5148  -6.0121   5.9482   5.9511   7.0085
     7.0121   7.0154  11.1004  11.2284  11.3704  11.5577  26.4839  26.5027
    29.4094

     occupation numbers
     1.0000   1.0000   1.0000   1.0000   1.0000   1.0000   1.0000   1.0000
     1.0000   1.0000   1.0000   1.0000   1.0000   1.0000   0.0000   0.0000
     0.0000

[...]

          k =-0.0017 0.0834 0.0000 (   774 PWs)   bands (ev):

[...]

          k = 0.4253-0.4253-0.5001 (   788 PWs)   bands (ev):

[...]

          k =-0.4903-0.4903-0.5001 (   780 PWs)   bands (ev):

  -112.3403 -66.5511 -66.5387 -66.5283  -3.2476   5.2993   5.3022   5.3109
     7.2831   7.2850  10.9252  11.0001  11.1065  17.5734  17.9353  18.2764
    21.6936

     occupation numbers
     1.0000   1.0000   1.0000   1.0000   1.0000   1.0000   1.0000   1.0000
     1.0000   1.0000   1.0000   1.0000   1.0000   0.0000   0.0000   0.0000
     0.0000

     the Fermi energy is    13.0018 ev

     WARNING: integrated charge=    26.00875272, expected=    26.00000000

!    total energy              =    -503.17179723 Ry
     estimated scf accuracy    <          4.4E-09 Ry
     smearing contrib. (-TS)   =       0.00000884 Ry
     internal energy E=F+TS    =    -503.17180607 Ry

     The total energy is F=E-TS. E is the sum of the following terms:
     one-electron contribution =    -353.07214806 Ry
     hartree contribution      =     190.18306849 Ry
     xc contribution           =     -49.70929627 Ry
     ewald contribution        =    -281.04231726 Ry
     one-center paw contrib.   =      -9.53111296 Ry
      -> PAW hartree energy AE =      25.61123086 Ry
      -> PAW hartree energy PS =     -25.49736849 Ry
      -> PAW xc energy AE      =     -16.59540365 Ry
      -> PAW xc energy PS      =       6.95042832 Ry
      -> total E_H with PAW    =     190.29693086 Ry
      -> total E_XC with PAW   =     -59.35427160 Ry

     convergence has been achieved in   9 iterations

     Forces acting on atoms (cartesian axes, Ry/au):

     atom    1 type  2   force =     0.00000000    0.00000000    0.00000000
     atom    2 type  1   force =     0.00000000    0.00000000    0.00000000
     The non-local contrib.  to forces
     atom    1 type  2   force =     0.00000000    0.00000000    0.00000000
     atom    2 type  1   force =     0.00000000    0.00000000    0.00000000
     The ionic contribution  to forces
     atom    1 type  2   force =    -0.00000000   -0.00000000   -0.00000000
     atom    2 type  1   force =    -0.00000000   -0.00000000   -0.00000000
     The local contribution  to forces
     atom    1 type  2   force =     0.00000000    0.00000000    0.00000000
     atom    2 type  1   force =     0.00000000    0.00000000    0.00000000
     The core correction contribution to forces
     atom    1 type  2   force =     0.00000000    0.00000000    0.00000000
     atom    2 type  1   force =     0.00000000    0.00000000    0.00000000
     The Hubbard contrib.    to forces
     atom    1 type  2   force =     0.00000000    0.00000000    0.00000000
     atom    2 type  1   force =     0.00000000    0.00000000    0.00000000
     The SCF correction term to forces
     atom    1 type  2   force =     0.00000000    0.00000000    0.00000000
     atom    2 type  1   force =     0.00000000    0.00000000    0.00000000

     Total force =     0.000000     Total SCF correction =     0.000000

     Computing stress (Cartesian axis) and pressure

          total   stress  (Ry/bohr**3)                   (kbar)     P=       10.34
   0.00007175   0.00016752   0.00000000           10.55       24.64        0.00
   0.00016752   0.00007175   0.00000000           24.64       10.55        0.00
   0.00000000   0.00000000   0.00006729            0.00        0.00        9.90

     kinetic stress (kbar)  42483.94     87.20      0.00
                               87.20  42483.94      0.00
                                0.00      0.00  42479.96

     local   stress (kbar)  10119.11   1542.40      0.00
                             1542.40  10119.11     -0.00
                                0.00     -0.00   9948.88

     nonloc. stress (kbar)   -941.83    -29.39      0.00
                              -29.39   -941.83      0.00
                                0.00      0.00   -939.55

     hartree stress (kbar)  70853.83   -569.49     -0.00
                             -569.49  70853.83      0.00
                               -0.00      0.00  70920.71

     exc-cor stress (kbar) -17257.80     -2.07     -0.00
                               -2.07 -17257.80      0.00
                               -0.00      0.00 -17257.65

     corecor stress (kbar)   -475.03     -0.25     -0.00
                               -0.25   -475.03     -0.00
                               -0.00     -0.00   -475.02

     ewald   stress (kbar)-104771.67  -1003.75     -0.00
                            -1003.75-104771.67      0.00
                               -0.00      0.00-104667.42

     hubbard stress (kbar)      0.00      0.00      0.00
                                0.00      0.00      0.00
                                0.00      0.00      0.00

     DFT-D   stress (kbar)      0.00      0.00      0.00
                                0.00      0.00      0.00
                                0.00      0.00      0.00

     XDM     stress (kbar)      0.00      0.00      0.00
                                0.00      0.00      0.00
                                0.00      0.00      0.00

     dft-nl  stress (kbar)      0.00      0.00      0.00
                                0.00      0.00      0.00
                                0.00      0.00      0.00

     TS-vdW  stress (kbar)      0.00      0.00      0.00
                                0.00      0.00      0.00
                                0.00      0.00      0.00

     MDB     stress (kbar)      0.00      0.00      0.00
                                0.00      0.00      0.00
                                0.00      0.00      0.00

     3D-RISM stress (kbar)      0.00      0.00      0.00
                                0.00      0.00      0.00
                                0.00      0.00      0.00

     Writing all to output data dir ./temp_cubic/aiida.save/ :
     XML data file, charge density, pseudopotentials, collected wavefunctions

     General routines

     Parallel routines

     PAW routines

   This run was terminated on:  17:17:17  13Jun2024

   JOB DONE.